%element	local	global	x	y	z	dx	dy	dz	e11	e22	e33	e12	e23	e13	s11	s22	s33	s12	s23	s13	von
0	0	1	-0.5	-0.5	0	-0.015	-0.015	0	0.03	0.03	-0.1	-2.77556e-16	1.249e-16	-2.63678e-16	-2.60209e-15	-1.26768e-15	-1	-1.06752e-15	4.80385e-16	-1.01415e-15	1	
