%element	local	global	x	y	z	dx	dy	dz	e11	e22	e33	e12	e23	e13	s11	s22	s33	s12	s23	s13	von
0	0	1	-0.5	-0.5	0	-0.015	-0.015	0	0.03	0.03	-0.1	1.38778e-17	4.85723e-17	-2.70617e-16	8.67362e-16	-1.20096e-15	-1	5.33761e-17	1.86816e-16	-1.04083e-15	1	
