%element	local	global	x	y	z	e11	e22	e33	e12	e23	e13	s11	s22	s33	s12	s23	s13	von
358	0	82	2.2714	0	0	0.00372978	-0.115808	0.0281245	-0.0023704	0	0.000839683	-0.202122	-1.19827	0.00116753	-0.00987668	0	0.00349868	1.39109	
574	0	83	2.00542	0	0	-0.000416334	-0.125966	0.0304222	-0.00794338	0	6.80616e-05	-0.270026	-1.31628	-0.013039	-0.0330974	0	0.00028359	1.49968	
574	2	84	1.79264	0	0	-0.000416334	-0.125966	0.0304222	-0.00794338	0	6.80616e-05	-0.270026	-1.31628	-0.013039	-0.0330974	0	0.00028359	1.49968	
575	3	84	1.79264	0	0	-0.000935841	-0.125966	0.0329245	-0.00779354	0.000282674	0.000414529	-0.268848	-1.31077	0.0133218	-0.0324731	0.00117781	0.0017272	1.51631	
844	0	88	1.29013	0	0	-0.000786801	-0.177281	0.0449271	-0.00502945	0	0.000355849	-0.376391	-1.84717	0.00455785	-0.020956	0	0.00148271	2.12411	
844	1	87	1.37729	0	0	-0.000786801	-0.177281	0.0449271	-0.00502945	0	0.000355849	-0.376391	-1.84717	0.00455785	-0.020956	0	0.00148271	2.12411	
845	2	87	1.37729	0	0	-0.000342468	-0.177281	0.0427531	-0.00477381	-0.00119585	-0.00125795	-0.377493	-1.85198	-0.0183633	-0.0198909	-0.0049827	-0.00524147	2.10963	
1132	0	88	1.29013	0	0	0.00209385	-0.183296	0.0449271	0.0110747	0	0.000355849	-0.361092	-1.906	-0.00414823	0.0461445	0	0.00148271	2.19473	
1221	3	85	1.62241	0	0	-0.00486955	-0.146561	0.0365086	-0.00744279	-0.000380622	-0.00108726	-0.359808	-1.54057	-0.0149902	-0.0310116	-0.00158593	-0.00453026	1.73996	
1222	0	85	1.62241	0	0	-0.00439544	-0.147835	0.0396093	-0.00694674	0	0.00158494	-0.349465	-1.54479	0.0172411	-0.0289447	0	0.0066039	1.77679	
1222	2	86	1.48623	0	0	-0.00439544	-0.147835	0.0396093	-0.00694674	0	0.00158494	-0.349465	-1.54479	0.0172411	-0.0289447	0	0.0066039	1.77679	
1223	0	85	1.62241	0	0	-0.00503958	-0.147101	0.0377388	-0.00622441	0.00112108	-0.000612305	-0.35978	-1.54363	-0.00329388	-0.025935	0.00467116	-0.00255127	1.7537	
1275	3	89	1.22041	0	0	0.0129006	-0.213644	0.0474226	-0.0018189	-0.000445391	-0.00192885	-0.318387	-2.20626	-0.0307038	-0.00757875	-0.00185579	-0.00803688	2.55254	
1276	0	89	1.22041	0	0	0.0127502	-0.214781	0.0490577	-0.00175194	0	0.000413368	-0.318674	-2.21477	-0.0161114	-0.00729975	0	0.00172237	2.57524	
1276	2	90	1.16463	0	0	0.0127502	-0.214781	0.0490577	-0.00175194	0	0.000413368	-0.318674	-2.21477	-0.0161114	-0.00729975	0	0.00172237	2.57524	
1277	0	89	1.22041	0	0	0.0127595	-0.214199	0.0479747	-0.000658699	-0.00013735	-0.00119839	-0.319962	-2.21128	-0.0265013	-0.00274458	-0.000572291	-0.0049933	2.56162	
1365	3	94	1.0329	0	0	0.0600163	-0.277619	0.0533271	0.00490936	0.000137314	-0.00444785	0.043816	-2.76981	-0.0119276	0.0204557	0.000572142	-0.0185327	3.40095	
1366	0	94	1.0329	0	0	0.0585054	-0.291766	0.0529284	0.0219829	0.00129834	0.000125838	-0.013378	-2.93231	-0.0598523	0.0915953	0.00540977	0.000524323	3.54067	
1367	0	94	1.0329	0	0	0.0599339	-0.300447	0.0538746	0.0145789	0.0013133	-0.00324138	-0.0189912	-3.02216	-0.0694853	0.0607454	0.00547209	-0.0135057	3.63862	
2392	0	82	2.2714	0	0	0.00161026	-0.118914	0.0304222	-0.00783714	0	6.80616e-05	-0.227919	-1.23229	0.0121803	-0.0326547	0	0.00028359	1.43397	
2392	2	83	2.00542	0	0	0.00161026	-0.118914	0.0304222	-0.00783714	0	6.80616e-05	-0.227919	-1.23229	0.0121803	-0.0326547	0	0.00028359	1.43397	
2393	0	82	2.2714	0	0	0.00185201	-0.118914	0.0281245	-0.00763279	-0.000608429	0.000119822	-0.231615	-1.238	-0.0126773	-0.0318033	-0.00253512	0.000499258	1.41805	
2428	0	84	1.79264	0	0	-0.0045822	-0.127856	0.0329245	-0.000189502	0	0.00139455	-0.314613	-1.3419	-0.00205674	-0.000789592	0	0.00581063	1.52412	
2482	0	90	1.16463	0	0	0.016009	-0.22336	0.0490577	0.0134196	0	0.000413368	-0.306294	-2.30103	-0.0308885	0.0559149	0	0.00172237	2.67441	
2553	3	85	1.62241	0	0	-0.00378811	-0.140776	0.0365086	0.00222681	-0.000232348	-0.0008573	-0.331722	-1.47329	0.00408381	0.00927836	-0.000968117	-0.00357208	1.6836	
2554	0	85	1.62241	0	0	-0.00401317	-0.141156	0.0377388	0.00365735	0.00185911	0.000532318	-0.331862	-1.47472	0.0160708	0.015239	0.00774629	0.00221799	1.696	
2555	0	85	1.62241	0	0	-0.00379948	-0.140212	0.034714	0.00217982	0.000321497	-0.000571573	-0.335268	-1.47204	-0.0143224	0.00908259	0.00133957	-0.00238155	1.66474	
2590	0	91	1.12001	0	0	0.0233105	-0.243642	0.0504667	0.0104324	0	0.000111091	-0.277593	-2.5022	-0.0512919	0.0434685	0	0.000462881	2.91326	
2770	0	90	1.16463	0	0	0.0210302	-0.231454	0.0504667	-0.000998144	0	0.000111091	-0.269074	-2.37311	-0.02377	-0.00415893	0	0.000462881	2.78082	
2770	2	91	1.12001	0	0	0.0210302	-0.231454	0.0504667	-0.000998144	0	0.000111091	-0.269074	-2.37311	-0.02377	-0.00415893	0	0.000462881	2.78082	
2771	0	90	1.16463	0	0	0.0215947	-0.231454	0.0490577	-0.000726666	-0.0012654	-0.00221803	-0.266715	-2.37546	-0.0378569	-0.00302777	-0.00527251	-0.0092418	2.77275	
2805	3	81	2.60387	0	0	0.00570214	-0.113811	0.0259219	-0.00693096	-0.000141358	-6.98443e-05	-0.180779	-1.17672	-0.0122816	-0.028879	-0.00058899	-0.000291018	1.36175	
2806	0	82	2.2714	0	0	0.00579173	-0.114014	0.0281245	-0.00705199	0	0.000839683	-0.174229	-1.17261	0.0118775	-0.0293833	0	0.00349868	1.37986	
2806	1	81	2.60387	0	0	0.00579173	-0.114014	0.0281245	-0.00705199	0	0.000839683	-0.174229	-1.17261	0.0118775	-0.0293833	0	0.00349868	1.37986	
2807	2	81	2.60387	0	0	0.00585446	-0.113891	0.0267944	-0.00684061	0.000408955	0.000756581	-0.176886	-1.17477	-0.00238662	-0.0285026	0.00170398	0.00315242	1.36925	
3111	3	81	2.60387	0	0	0.0103364	-0.110733	0.0259219	-0.00555187	-9.61621e-05	0.000119569	-0.120738	-1.12965	0.00914164	-0.0231328	-0.000400675	0.000498204	1.3444	
3112	0	80	3.01946	0	0	0.0105643	-0.110813	0.0252279	-0.00564197	0.000221008	0.000458802	-0.120357	-1.13184	0.00184028	-0.0235082	0.000920866	0.00191168	1.34106	
3112	2	81	2.60387	0	0	0.0105643	-0.110813	0.0252279	-0.00564197	0.000221008	0.000458802	-0.120357	-1.13184	0.00184028	-0.0235082	0.000920866	0.00191168	1.34106	
3113	0	80	3.01946	0	0	0.0105643	-0.110733	0.0241132	-0.00523591	0.000406671	-0.000654334	-0.12323	-1.13404	-0.0103221	-0.0218163	0.00169446	-0.00272639	1.33232	
3113	2	81	2.60387	0	0	0.0105643	-0.110733	0.0241132	-0.00523591	0.000406671	-0.000654334	-0.12323	-1.13404	-0.0103221	-0.0218163	0.00169446	-0.00272639	1.33232	
3256	1	87	1.37729	0	0	-0.00365708	-0.168964	0.0427531	0.0077751	0	0.000820586	-0.39122	-1.76878	-0.0044681	0.0323963	0	0.00341911	2.01614	
3381	3	93	1.05575	0	0	0.059840	-0.282041	0.0524762	0.0146192	-0.000340685	-0.00302863	0.0272097	-2.8218	-0.0341556	0.0609132	-0.00141952	-0.0126193	3.44107	
3382	0	94	1.0329	0	0	0.0584601	-0.287792	0.0529284	0.0133505	0.00129834	0.000125838	-0.00284208	-2.88827	-0.0489388	0.0556271	0.00540977	0.000524323	3.49772	
3382	1	93	1.05575	0	0	0.0584601	-0.287792	0.0529284	0.0133505	0.00129834	0.000125838	-0.00284208	-2.88827	-0.0489388	0.0556271	0.00540977	0.000524323	3.49772	
3383	0	94	1.0329	0	0	0.0584601	-0.282041	0.0533271	0.0152529	-0.00176593	-0.000303648	0.0142406	-2.82327	-0.0285339	0.0635539	-0.00735804	-0.0012652	3.44217	
3383	2	93	1.05575	0	0	0.0584601	-0.282041	0.0533271	0.0152529	-0.00176593	-0.000303648	0.0142406	-2.82327	-0.0285339	0.0635539	-0.00735804	-0.0012652	3.44217	
3418	0	86	1.48623	0	0	-0.00423521	-0.153358	0.0396093	0.00461039	0	0.00158494	-0.363026	-1.60572	0.00234432	0.0192099	0	0.0066039	1.83282	
3598	0	92	1.08431	0	0	0.0451479	-0.271953	0.0515705	0.00498542	0	0.000162474	-0.11053	-2.75304	-0.0570083	0.0207726	0	0.000676976	3.28044	
3598	2	93	1.05575	0	0	0.0451479	-0.271953	0.0515705	0.00498542	0	0.000162474	-0.11053	-2.75304	-0.0570083	0.0207726	0	0.000676976	3.28044	
3599	3	93	1.05575	0	0	0.0454039	-0.271953	0.0524762	0.00484437	0.00145382	-0.00256788	-0.10517	-2.74981	-0.046234	0.0201849	0.00605758	-0.0106995	3.28756	
3651	3	89	1.22041	0	0	0.00791298	-0.205457	0.0474226	0.0108126	-0.000401592	-0.001847	-0.351061	-2.12914	-0.0218148	0.0450524	-0.0016733	-0.00769581	2.45517	
3652	0	89	1.22041	0	0	0.00754941	-0.205804	0.0479747	0.0122401	0.000728455	0.000419568	-0.354534	-2.13248	-0.0176559	0.0510004	0.00303523	0.0017482	2.46189	
3653	0	89	1.22041	0	0	0.00790906	-0.204873	0.0462249	0.0105455	0.00111131	-0.00164513	-0.352812	-2.126	-0.0335132	0.0439395	0.00463046	-0.0068547	2.44061	
3670	0	83	2.00542	0	0	0.000376404	-0.121362	0.0304222	-0.00140073	0	6.80616e-05	-0.248428	-1.26291	0.00195322	-0.00583636	0	0.00028359	1.45416	
3796	0	93	1.05575	0	0	0.0464422	-0.278628	0.0529284	0.0164059	0.00129834	0.000125838	-0.110918	-2.81983	-0.0568656	0.068358	0.00540977	0.000524323	3.3641	
3797	0	93	1.05575	0	0	0.0462689	-0.276204	0.0524762	0.0120959	0.00084425	-0.00145987	-0.107368	-2.79464	-0.0556401	0.0503997	0.00351771	-0.00608278	3.33476	
3814	0	86	1.48623	0	0	-0.00369575	-0.161184	0.0427531	-0.00665991	0	0.000820586	-0.370037	-1.68244	0.0170365	-0.0277496	0	0.00341911	1.93694	
3814	2	87	1.37729	0	0	-0.00369575	-0.161184	0.0427531	-0.00665991	0	0.000820586	-0.370037	-1.68244	0.0170365	-0.0277496	0	0.00341911	1.93694	
3815	0	86	1.48623	0	0	-0.00311106	-0.161184	0.0396093	-0.00626658	-0.0016178	-0.000819953	-0.372274	-1.68955	-0.0162713	-0.0261107	-0.00674083	-0.00341647	1.91564	
3939	3	89	1.22041	0	0	0.00564855	-0.195742	0.0474226	-0.0030502	-6.87194e-06	-0.00246869	-0.349237	-2.02749	-0.00112042	-0.0127092	-2.86331e-05	-0.0102862	2.34846	
3940	0	89	1.22041	0	0	0.0058376	-0.195154	0.0449271	-0.00344819	0	0.000355849	-0.352434	-2.02736	-0.0266882	-0.0143675	0	0.00148271	2.32508	
3940	1	88	1.29013	0	0	0.0058376	-0.195154	0.0449271	-0.00344819	0	0.000355849	-0.352434	-2.02736	-0.0266882	-0.0143675	0	0.00148271	2.32508	
3941	0	89	1.22041	0	0	0.00543919	-0.195435	0.0462249	-0.0027521	0.000614119	-0.000862029	-0.354037	-2.02799	-0.0141564	-0.0114671	0.00255883	-0.00359179	2.33603	
4264	0	92	1.08431	0	0	0.0333641	-0.256666	0.0515705	0.0025324	0	0.000162474	-0.198998	-2.61592	-0.0472779	0.0105517	0	0.000676976	3.08529	
4264	1	91	1.12001	0	0	0.0333641	-0.256666	0.0515705	0.0025324	0	0.000162474	-0.198998	-2.61592	-0.0472779	0.0105517	0	0.000676976	3.08529	
4265	2	91	1.12001	0	0	0.0332442	-0.256666	0.0504667	0.00238083	-0.00325841	-0.0024655	-0.203397	-2.61932	-0.0598757	0.00992011	-0.0135767	-0.0102729	3.07737	
4497	3	79	3.53894	0	0	0.0166864	-0.103794	0.022416	-0.00350391	1.25177e-05	2.99564e-05	-0.0406451	-1.04465	0.007101	-0.0145996	5.21571e-05	0.000124818	1.26918	
4498	0	79	3.53894	0	0	0.0167399	-0.103754	0.0213869	-0.00352285	-0.000179717	-1.99062e-05	-0.0427982	-1.04691	-0.00407336	-0.0146785	-0.000748821	-8.29423e-05	1.26186	
4498	1	78	4.1883	0	0	0.0167399	-0.103754	0.0213869	-0.00352285	-0.000179717	-1.99062e-05	-0.0427982	-1.04691	-0.00407336	-0.0146785	-0.000748821	-8.29423e-05	1.26186	
4499	0	79	3.53894	0	0	0.0167399	-0.103794	0.0209921	-0.00348183	8.79597e-05	-0.000204039	-0.0440061	-1.04845	-0.00857139	-0.0145076	0.000366499	-0.000850163	1.25954	
4499	2	78	4.1883	0	0	0.0167399	-0.103794	0.0209921	-0.00348183	8.79597e-05	-0.000204039	-0.0440061	-1.04845	-0.00857139	-0.0145076	0.000366499	-0.000850163	1.25954	
4767	3	94	1.0329	0	0	0.0810631	-0.268133	0.0533271	0.0352729	-0.00245571	-0.00707991	0.304018	-2.60595	0.0728853	0.14697	-0.0102321	-0.0294996	3.38789	
4768	0	94	1.0329	0	0	0.0814733	-0.300291	0.0538746	0.035957	0.00417168	-0.000339979	0.220768	-2.9606	-0.00922093	0.149821	0.017382	-0.00141658	3.72014	
4768	2	95	1.01462	0	0	0.0814733	-0.300291	0.0538746	0.035957	0.00417168	-0.000339979	0.220768	-2.9606	-0.00922093	0.149821	0.017382	-0.00141658	3.72014	
4769	0	94	1.0329	0	0	0.0814733	-0.268133	0.0548136	0.0349834	-0.00723845	-0.000213672	0.312705	-2.60068	0.0905406	0.145764	-0.0301602	-0.0008903	3.39898	
4769	2	95	1.01462	0	0	0.0814733	-0.268133	0.0548136	0.0349834	-0.00723845	-0.000213672	0.312705	-2.60068	0.0905406	0.145764	-0.0301602	-0.0008903	3.39898	
4821	3	79	3.53894	0	0	0.0182331	-0.106145	0.022416	-0.00377319	-1.83755e-07	3.95556e-05	-0.0299922	-1.06648	0.00486512	-0.0157216	-7.65648e-07	0.000164815	1.29834	
4822	0	79	3.53894	0	0	0.0182895	-0.106144	0.0213869	-0.00376714	-0.000179717	-1.99062e-05	-0.0322186	-1.06916	-0.00640728	-0.0156964	-0.000748821	-8.29423e-05	1.29144	
4823	0	79	3.53894	0	0	0.0182273	-0.106142	0.0223678	-0.00379239	-1.11761e-05	0.000166267	-0.0301819	-1.0666	0.00432188	-0.0158016	-4.65673e-05	0.000692777	1.29796	
5002	0	80	3.01946	0	0	0.0137893	-0.107258	0.0241132	-0.0053335	0	-0.000654334	-0.0777442	-1.08648	0.00828778	-0.0222229	0	-0.00272639	1.3072	
5002	1	79	3.53894	0	0	0.0137893	-0.107258	0.0241132	-0.0053335	0	-0.000654334	-0.0777442	-1.08648	0.00828778	-0.0222229	0	-0.00272639	1.3072	
5003	2	79	3.53894	0	0	0.0139284	-0.107258	0.022416	-0.00519311	-0.000274825	-5.95755e-05	-0.0809133	-1.0908	-0.0101838	-0.0216379	-0.0011451	-0.000248231	1.2958	
5109	3	80	3.01946	0	0	0.00945798	-0.108785	0.0241132	-0.0053647	-6.43377e-05	-0.000994059	-0.130111	-1.11547	-0.00798411	-0.0223529	-0.000268074	-0.00414191	1.30902	
5110	0	80	3.01946	0	0	0.00962024	-0.108814	0.0242488	-0.00550866	0.000184634	0.000405534	-0.128012	-1.11496	-0.0061068	-0.0229527	0.00076931	0.00168972	1.3108	
5111	0	80	3.01946	0	0	0.00961004	-0.108824	0.0252279	-0.00552976	-3.8869e-05	0.00027136	-0.125432	-1.11238	0.00471692	-0.0230407	-0.000161954	0.00113067	1.31778	
5325	3	85	1.62241	0	0	-0.00401966	-0.134386	0.0365086	-0.00658059	-0.000170356	-0.000944344	-0.316545	-1.40293	0.0211903	-0.0274191	-0.000709817	-0.00393477	1.61881	
5326	0	85	1.62241	0	0	-0.00430574	-0.13378	0.0329245	-0.00649189	0	0.00139455	-0.327995	-1.40695	-0.0177434	-0.0270496	0	0.00581063	1.58564	
5326	1	84	1.79264	0	0	-0.00430574	-0.13378	0.0329245	-0.00649189	0	0.00139455	-0.327995	-1.40695	-0.0177434	-0.0270496	0	0.00581063	1.58564	
5327	0	85	1.62241	0	0	-0.00409084	-0.134047	0.034714	-0.00626991	-0.000142227	7.95635e-05	-0.321379	-1.40435	0.0019946	-0.0261246	-0.000592614	0.000331515	1.60195	
5649	3	96	0.999983	0.00574211	0	-0.0128356	0	0.0553696	0.00390364	0.000512569	0.00383084	0.0111867	0.11815	0.579564	0.0162652	0.00213571	0.0159618	0.469249	
5650	0	8	1.000000	0	0	0.00734112	0	0.0553338	-0.0198416	0	0.00467962	0.235273	0.174097	0.635212	-0.0826732	0	0.0194984	0.485946	
5650	2	96	0.999983	0.00574211	0	0.00734112	0	0.0553338	-0.0198416	0	0.00467962	0.235273	0.174097	0.635212	-0.0826732	0	0.0194984	0.485946	
5651	3	96	0.999983	0.00574211	0	0.00497354	0	0.0551802	-0.0260159	-0.00223131	0.00339877	0.20854	0.167094	0.626929	-0.108399	-0.00929715	0.0141616	0.498417	
5884	0	98	0.999760	0.0218902	0	0.0710032	-0.322968	0.0535827	0.00661105	0.0119694	-0.000481221	0.040631	-3.24246	-0.10454	0.027546	0.0498724	-0.00200509	3.90457	
5974	0	96	0.999983	0.00574211	0	0.0483297	-0.292695	0.0551802	-0.0252485	0	0.00425464	-0.122767	-2.96464	-0.0656789	-0.105202	0	0.0177277	3.53217	
5975	0	96	0.999983	0.00574211	0	0.0323825	-0.292695	0.0553696	0.00952156	0.0031887	0.00485735	-0.299431	-3.00841	-0.107872	0.0396732	0.0132863	0.0202389	3.47691	
6082	0	7	5.000000	0	0	0.0179654	-0.0956283	0.0197349	-0.00115894	0	-2.65199e-05	-0.0111992	-0.957814	0.00354616	-0.00482892	0	-0.0001105	1.17146	
6208	0	97	0.999917	0.0129195	0	0.0784995	-0.349053	0.0543235	-0.0236273	0.0111723	-0.000561433	0.053525	-3.50941	-0.147942	-0.0984469	0.0465515	-0.0023393	4.20503	
6226	0	91	1.120010	0	0	0.0295152	-0.244053	0.0504667	0.00763954	0	0.000111091	-0.209792	-2.48952	-0.0351963	0.0318314	0	0.000462881	2.93689	
6316	0	98	0.999760	0.0218902	0	0.0712683	-0.351223	0.0535827	-0.0134947	0.0119694	-0.000481221	-0.0349079	-3.55567	-0.182288	-0.056228	0.0498724	-0.00200509	4.19458	
6316	1	97	0.999917	0.0129195	0	0.0712683	-0.351223	0.0535827	-0.0134947	0.0119694	-0.000481221	-0.0349079	-3.55567	-0.182288	-0.056228	0.0498724	-0.00200509	4.19458	
6317	2	97	0.999917	0.0129195	0	0.070624	-0.343931	0.0543235	-0.019171	0.00439459	0.00539681	-0.0197537	-3.47438	-0.155591	-0.0798792	0.0183108	0.0224867	4.1235	
6424	0	95	1.014620	0	0	0.0367298	-0.256889	0.0538746	0.00604568	0.00417168	-0.000339979	-0.15582	-2.60265	-0.0129476	0.0251904	0.017382	-0.00141658	3.11494	
6425	0	95	1.014620	0	0	0.0359999	-0.241736	0.0548136	0.0296794	-0.00341082	-0.00563673	-0.119231	-2.4337	0.0375502	0.123664	-0.0142117	-0.0234864	2.97213	
6801	3	78	4.188300	0	0	0.0193439	-0.102967	0.0209921	-0.000404358	2.311e-05	-0.000361112	-0.0127767	-1.03204	0.000958293	-0.00168483	9.62916e-05	-0.00150463	1.25958	
6802	2	78	4.188300	0	0	0.0193362	-0.102904	0.0203758	-0.000393287	-0.000455393	-2.17302e-05	-0.014399	-1.03307	-0.00573597	-0.00163869	-0.00189747	-9.05423e-05	1.2547	
6803	3	78	4.188300	0	0	0.0193359	-0.102924	0.0213869	-0.000440869	-0.000251615	-0.000194051	-0.0116486	-1.03048	0.00544306	-0.00183695	-0.0010484	-0.000808547	1.26181	
7108	0	79	3.538940	0	0	0.0137517	-0.106114	0.0223678	-0.00423761	-1.87735e-05	0.000337162	-0.0798314	-1.07871	-0.00803079	-0.0176567	-7.82231e-05	0.00140484	1.28303	
7109	0	79	3.538940	0	0	0.013771	-0.106117	0.022416	-0.00422102	-7.54782e-06	0.000205208	-0.0794912	-1.07856	-0.00744981	-0.0175876	-3.14492e-05	0.000855034	1.28346	
7216	0	95	1.014620	0	0	0.059798	-0.291115	0.0551802	-0.033864	0	0.00425464	0.009047	-2.91523	-0.0294346	-0.1411	0	0.0177277	3.55868	
7217	0	95	1.014620	0	0	0.00309009	-0.291115	0.0548136	-0.0695301	-0.00292665	-0.00486693	-0.622059	-3.07377	-0.191031	-0.289709	-0.0121944	-0.0202789	3.40134	
7323	3	81	2.603870	0	0	0.00857812	-0.111865	0.0259219	-0.00217561	-6.09467e-05	3.8213e-05	-0.143418	-1.14711	0.00111314	-0.00906506	-0.000253945	0.000159221	1.34995	
7324	0	81	2.603870	0	0	0.00874485	-0.11199	0.0252279	-0.00213532	0.000221008	0.000458802	-0.143842	-1.14997	-0.00648308	-0.00889718	0.000920866	0.00191168	1.34683	
7325	0	81	2.603870	0	0	0.0085492	-0.112091	0.0267944	-0.00241602	0.000295745	0.000604449	-0.141944	-1.14728	0.0100997	-0.0100668	0.00123227	0.00251854	1.35838	
7648	0	80	3.019460	0	0	0.0142235	-0.108719	0.0242488	-0.00389768	0.000184634	0.000405534	-0.0765993	-1.10112	0.00694516	-0.0162403	0.00076931	0.00168972	1.32417	
7649	0	80	3.019460	0	0	0.0140165	-0.108689	0.0241132	-0.0037649	2.16131e-05	-0.000680828	-0.0791942	-1.10174	0.00494449	-0.0156871	9.00548e-05	-0.00283679	1.32224	
7972	0	92	1.084310	0	0	0.0378645	-0.26341	0.0515705	0.0131872	0	0.000162474	-0.167728	-2.67835	-0.053511	0.0549466	0	0.000676976	3.17025	
8367	3	78	4.188300	0	0	0.0191561	-0.100335	0.0209921	-0.00215996	-1.36942e-05	-0.000333109	-0.00755291	-1.00332	0.00774707	-0.00899985	-5.70591e-05	-0.00138795	1.23218	
8368	0	7	5.000000	0	0	0.0191378	-0.1002	0.0197349	-0.00219024	0	-2.65199e-05	-0.0108713	-1.00535	-0.005896	-0.00912601	0	-0.0001105	1.22215	
8368	2	78	4.188300	0	0	0.0191378	-0.1002	0.0197349	-0.00219024	0	-2.65199e-05	-0.0108713	-1.00535	-0.005896	-0.00912601	0	-0.0001105	1.22215	
8369	3	78	4.188300	0	0	0.0191374	-0.100261	0.0203758	-0.00214284	-0.000368915	-8.75286e-05	-0.00926716	-1.00426	0.0010531	-0.00892851	-0.00153715	-0.000364702	1.22715	
8385	3	95	1.014620	0	0	-0.0134265	0	0.0548136	0.00489888	0.00131279	-0.00317897	0.00307669	0.114964	0.571744	0.020412	0.00546994	-0.0132457	0.465589	
8386	0	8	1.000000	0	0	0.014465	0	0.0553338	-0.031808	0	0.00467962	0.314428	0.193886	0.655001	-0.132533	0	0.0194984	0.52319	
8386	1	95	1.014620	0	0	0.014465	0	0.0553338	-0.031808	0	0.00467962	0.314428	0.193886	0.655001	-0.132533	0	0.0194984	0.52319	
8387	2	95	1.014620	0	0	0.0120427	0	0.0551802	-0.0378927	-0.00219854	0.00337927	0.287086	0.18673	0.646565	-0.157886	-0.00916058	0.0140803	0.540476	
