%element	local	global	x	y	z	e11	e22	e33	e12	e23	e13	s11	s22	s33	s12	s23	s13	von
267	3	746	1.00535	0.00467696	0	0.0609537	-0.41102	0.0722186	0.0297583	0.00931861	-0.00109232	-0.263853	-4.19697	-0.169979	0.123993	0.0388275	-0.00455132	4.89919	
268	0	746	1.00535	0.00467696	0	0.0697112	-0.392382	0.0710189	0.0315627	0.0248592	0.00154686	-0.118105	-3.96888	-0.107207	0.131511	0.10358	0.00644525	4.73402	
268	1	791	1.01085	0.00542889	0	0.0697112	-0.392382	0.0710189	0.0315627	0.0248592	0.00154686	-0.118105	-3.96888	-0.107207	0.131511	0.10358	0.00644525	4.73402	
268	2	829	1.00603	0.010498	0	0.0697112	-0.392382	0.0710189	0.0315627	0.0248592	0.00154686	-0.118105	-3.96888	-0.107207	0.131511	0.10358	0.00644525	4.73402	
269	1	791	1.01085	0.00542889	0	0.070166	-0.417539	0.0718327	0.0316624	0.0147499	0.00339482	-0.180673	-4.24488	-0.166784	0.131927	0.0614579	0.0141451	4.99539	
269	2	746	1.00535	0.00467696	0	0.070166	-0.417539	0.0718327	0.0316624	0.0147499	0.00339482	-0.180673	-4.24488	-0.166784	0.131927	0.0614579	0.0141451	4.99539	
286	1	80	1.50486	0	0	0.00377514	-0.177285	0.0419905	-0.0106217	0	0.00223593	-0.333871	-1.8427	-0.0154106	-0.0442573	0	0.00931638	2.11741	
358	1	80	1.50486	0	0	0.0161705	-0.176983	0.0419905	-0.00193546	0	0.00223593	-0.195307	-1.80492	0.0198596	-0.00806441	0	0.00931638	2.15074	
393	3	746	1.00535	0.00467696	0	0.0413651	0	0.0722186	-0.0137091	0.0102548	0.000914066	0.66022	0.31551	0.917332	-0.0571212	0.0427282	0.00380861	0.660992	
394	0	95	1.00366	0	0	0.099475	-0.464639	0.0730532	0.00536273	0	0.00153256	0.0175399	-4.68341	-0.202642	0.0223447	0	0.00638565	5.57928	
394	1	94	1.00822	0	0	0.099475	-0.464639	0.0730532	0.00536273	0	0.00153256	0.0175399	-4.68341	-0.202642	0.0223447	0	0.00638565	5.57928	
394	2	746	1.00535	0.00467696	0	0.099475	-0.464639	0.0730532	0.00536273	0	0.00153256	0.0175399	-4.68341	-0.202642	0.0223447	0	0.00638565	5.57928	
395	2	95	1.00366	0	0	0.0413651	-0.464639	0.073138	0.0263605	0.000559875	0.00316291	-0.62789	-4.84459	-0.363116	0.109835	0.00233281	0.0131788	5.38615	
395	3	746	1.00535	0.00467696	0	0.0413651	-0.464639	0.073138	0.0263605	0.000559875	0.00316291	-0.62789	-4.84459	-0.363116	0.109835	0.00233281	0.0131788	5.38615	
465	3	843	1.00211	0.00269529	0	0.0240267	0	0.0726823	-0.0707935	-0.000552323	0.00144196	0.468859	0.268636	0.874322	-0.294973	-0.00230135	0.00600815	0.805016	
466	0	96	0.999983	0.00574211	0	0.087102	-0.380435	0.0732443	-0.0451654	0	0.00963961	0.114494	-3.78164	-0.000987425	-0.188189	0	0.040165	4.68982	
466	1	8	1	0	0	0.087102	-0.380435	0.0732443	-0.0451654	0	0.00963961	0.114494	-3.78164	-0.000987425	-0.188189	0	0.040165	4.68982	
466	2	843	1.00211	0.00269529	0	0.087102	-0.380435	0.0732443	-0.0451654	0	0.00963961	0.114494	-3.78164	-0.000987425	-0.188189	0	0.040165	4.68982	
467	2	96	0.999983	0.00574211	0	-0.0356194	0.00144225	0.0722547	0.41618	0.0117792	-0.0168983	-0.191058	0.11779	0.707893	1.73408	0.0490798	-0.0704096	3.07232	
467	3	843	1.00211	0.00269529	0	-0.0356194	0.00144225	0.0722547	0.41618	0.0117792	-0.0168983	-0.191058	0.11779	0.707893	1.73408	0.0490798	-0.0704096	3.07232	
483	3	79	1.63474	0	0	0.0167763	-0.139474	0.0353965	-0.024208	-0.000250119	-0.000485985	-0.102701	-1.40479	0.0524671	-0.100867	-0.00104216	-0.00202494	1.73258	
484	0	79	1.63474	0	0	0.0183527	-0.139826	0.0314602	-0.0239888	0.000692	0.00134264	-0.097097	-1.41525	0.0121318	-0.0999534	0.00288334	0.00559435	1.71356	
484	1	78	1.79708	0	0	0.0183527	-0.139826	0.0314602	-0.0239888	0.000692	0.00134264	-0.097097	-1.41525	0.0121318	-0.0999534	0.00288334	0.00559435	1.71356	
485	1	78	1.79708	0	0	0.0183527	-0.139474	0.0281506	-0.0233888	0.00168282	0.000162587	-0.105313	-1.42054	-0.0236638	-0.0974535	0.00701175	0.000677448	1.68665	
485	2	79	1.63474	0	0	0.0183527	-0.139474	0.0281506	-0.0233888	0.00168282	0.000162587	-0.105313	-1.42054	-0.0236638	-0.0974535	0.00701175	0.000677448	1.68665	
664	1	79	1.63474	0	0	0.0111641	-0.150709	0.0314602	0.00250934	0.000692	0.00134264	-0.207202	-1.55615	-0.0380678	0.0104556	0.00288334	0.00559435	1.79299	
665	1	79	1.63474	0	0	0.01002	-0.150554	0.0353965	0.00250527	-0.000880081	0.000851896	-0.208549	-1.54667	0.0029208	0.0104386	-0.003667	0.00354957	1.81574	
699	3	755	1.02512	0.0122286	0	0.065774	-0.435793	0.0699779	0.00914305	0.013001	-0.00344014	-0.285331	-4.46506	-0.250298	0.038096	0.0541708	-0.0143339	5.14908	
700	1	733	1.0139	0.0133006	0	0.07149	-0.405003	0.070292	0.00910595	0.0227867	0.000634951	-0.13542	-4.1062	-0.145404	0.0379415	0.0949447	0.00264563	4.85827	
700	2	755	1.02512	0.0122286	0	0.07149	-0.405003	0.070292	0.00910595	0.0227867	0.000634951	-0.13542	-4.1062	-0.145404	0.0379415	0.0949447	0.00264563	4.85827	
701	3	755	1.02512	0.0122286	0	0.0716032	-0.417964	0.0690329	-0.0186018	0.0146464	-0.00913777	-0.17366	-4.25338	-0.195079	-0.0775075	0.0610266	-0.038074	4.98251	
1096	0	80	1.50486	0	0	0.0114222	-0.15925	0.0419905	-0.0205087	0	0.00223593	-0.198809	-1.62108	0.055927	-0.0854529	0	0.00931638	1.96111	
1096	1	79	1.63474	0	0	0.0114222	-0.15925	0.0419905	-0.0205087	0	0.00223593	-0.198809	-1.62108	0.055927	-0.0854529	0	0.00931638	1.96111	
1097	1	79	1.63474	0	0	0.0120622	-0.15925	0.0353965	-0.0202721	-0.00156342	-0.000997307	-0.210013	-1.63762	-0.0155615	-0.0844672	-0.00651425	-0.00415544	1.91616	
1275	3	746	1.00535	0.00467696	0	0.0543717	-0.395292	0.0722186	-0.104118	0.00935635	-0.00141595	-0.293296	-4.04049	-0.144572	-0.433825	0.0389848	-0.0058998	4.7716	
1276	0	829	1.00603	0.010498	0	0.0766123	-0.378471	0.0722547	-0.0883211	0.0262018	0.00376135	0.000646194	-3.79172	-0.0356675	-0.368005	0.109174	0.0156723	4.6628	
1276	1	96	0.999983	0.00574211	0	0.0766123	-0.378471	0.0722547	-0.0883211	0.0262018	0.00376135	0.000646194	-3.79172	-0.0356675	-0.368005	0.109174	0.0156723	4.6628	
1276	2	746	1.00535	0.00467696	0	0.0766123	-0.378471	0.0722547	-0.0883211	0.0262018	0.00376135	0.000646194	-3.79172	-0.0356675	-0.368005	0.109174	0.0156723	4.6628	
1277	2	829	1.00603	0.010498	0	0.0430086	-0.376091	0.0710189	-0.104769	0.0270499	-0.0172062	-0.36955	-3.86205	-0.136131	-0.436537	0.112708	-0.0716925	4.53944	
1277	3	746	1.00535	0.00467696	0	0.0430086	-0.376091	0.0710189	-0.104769	0.0270499	-0.0172062	-0.36955	-3.86205	-0.136131	-0.436537	0.112708	-0.0716925	4.53944	
1401	3	755	1.02512	0.0122286	0	0.0739977	-0.43388	0.0699779	0.0170819	0.0129123	-0.00363019	-0.188642	-4.42095	-0.222139	0.0711746	0.0538012	-0.0151258	5.15857	
1402	1	755	1.02512	0.0122286	0	0.0740414	-0.394361	0.0683288	0.0330932	0.01514	0.000831766	-0.0829631	-3.98632	-0.130568	0.137888	0.0630835	0.00346569	4.7491	
1403	1	755	1.02512	0.0122286	0	0.0753116	-0.40763	0.0690329	0.00526323	0.0169231	-0.00426097	-0.103753	-4.12827	-0.156075	0.0219301	0.070513	-0.017754	4.88815	
1510	1	733	1.0139	0.0133006	0	0.0783262	-0.417495	0.0695402	0.0201777	0.0201703	0.000223934	-0.0962514	-4.2281	-0.169468	0.0840738	0.084043	0.00093306	5.00509	
1511	1	733	1.0139	0.0133006	0	0.0840474	-0.445378	0.070292	0.0522021	0.0147751	0.0110953	-0.108045	-4.51992	-0.222674	0.217509	0.0615631	0.0462302	5.32526	
1653	3	755	1.02512	0.0122286	0	0.0638804	-0.454345	0.0699779	-0.0124334	0.00822478	-0.00389652	-0.357905	-4.67645	-0.307092	-0.051806	0.0342699	-0.0162355	5.33185	
1654	0	788	1.01785	0.0058521	0	0.0702435	-0.449909	0.070292	-0.00821606	0.0227867	0.000634951	-0.274008	-4.60861	-0.273604	-0.0342336	0.0949447	0.00264563	5.31199	
1654	1	755	1.02512	0.0122286	0	0.0702435	-0.449909	0.070292	-0.00821606	0.0227867	0.000634951	-0.274008	-4.60861	-0.273604	-0.0342336	0.0949447	0.00264563	5.31199	
1654	2	733	1.0139	0.0133006	0	0.0702435	-0.449909	0.070292	-0.00821606	0.0227867	0.000634951	-0.274008	-4.60861	-0.273604	-0.0342336	0.0949447	0.00264563	5.31199	
1655	1	755	1.02512	0.0122286	0	0.0695725	-0.452226	0.0713994	-0.00541692	0.0146333	0.00795221	-0.284824	-4.63314	-0.269599	-0.0225705	0.0609721	0.0331342	5.33952	
1655	2	788	1.01785	0.0058521	0	0.0695725	-0.452226	0.0713994	-0.00541692	0.0146333	0.00795221	-0.284824	-4.63314	-0.269599	-0.0225705	0.0609721	0.0331342	5.33952	
1689	3	860	1.0258	0.00480335	0	0.0392711	-0.384205	0.0708997	0.0907518	0.0143628	-0.0089561	-0.433947	-3.96291	-0.170375	0.378133	0.0598448	-0.0373171	4.58847	
1690	0	854	1.03435	0.00676916	0	0.0463267	-0.351389	0.0697426	0.0905397	0.0247658	-0.000966526	-0.26761	-3.58191	-0.072478	0.377249	0.103191	-0.00402719	4.27403	
1690	1	755	1.02512	0.0122286	0	0.0463267	-0.351389	0.0697426	0.0905397	0.0247658	-0.000966526	-0.26761	-3.58191	-0.072478	0.377249	0.103191	-0.00402719	4.27403	
1690	2	860	1.0258	0.00480335	0	0.0463267	-0.351389	0.0697426	0.0905397	0.0247658	-0.000966526	-0.26761	-3.58191	-0.072478	0.377249	0.103191	-0.00402719	4.27403	
1691	1	755	1.02512	0.0122286	0	0.0389405	-0.349478	0.0699779	0.110737	0.0223736	-0.00243971	-0.343716	-3.58053	-0.0850704	0.461403	0.0932232	-0.0101654	4.25697	
1691	2	860	1.0258	0.00480335	0	0.0389405	-0.349478	0.0699779	0.110737	0.0223736	-0.00243971	-0.343716	-3.58053	-0.0850704	0.461403	0.0932232	-0.0101654	4.25697	
1707	3	791	1.01085	0.00542889	0	0.064394	-0.439144	0.0718327	0.00345291	0.011127	-0.000415347	-0.304819	-4.50096	-0.24283	0.0143871	0.0463624	-0.00173061	5.19063	
1708	0	829	1.00603	0.010498	0	0.0706039	-0.402319	0.0710189	0.0219609	0.0248592	0.00154686	-0.135789	-4.07681	-0.13233	0.0915039	0.10358	0.00644525	4.83551	
1708	1	791	1.01085	0.00542889	0	0.0706039	-0.402319	0.0710189	0.0219609	0.0248592	0.00154686	-0.135789	-4.07681	-0.13233	0.0915039	0.10358	0.00644525	4.83551	
1708	2	733	1.0139	0.0133006	0	0.0706039	-0.402319	0.0710189	0.0219609	0.0248592	0.00154686	-0.135789	-4.07681	-0.13233	0.0915039	0.10358	0.00644525	4.83551	
1709	1	791	1.01085	0.00542889	0	0.0594023	-0.392455	0.070292	0.000843495	0.0262467	-0.00829486	-0.23487	-4.00035	-0.144124	0.00351456	0.109361	-0.0345619	4.69035	
1709	2	733	1.0139	0.0133006	0	0.0594023	-0.392455	0.070292	0.000843495	0.0262467	-0.00829486	-0.23487	-4.00035	-0.144124	0.00351456	0.109361	-0.0345619	4.69035	
1744	0	84	1.19816	0	0	0.0156864	-0.259044	0.0589428	-0.00684986	0	0.00077377	-0.381543	-2.67096	-0.0210732	-0.0285411	0	0.00322404	3.10566	
1744	1	83	1.25135	0	0	0.0156864	-0.259044	0.0589428	-0.00684986	0	0.00077377	-0.381543	-2.67096	-0.0210732	-0.0285411	0	0.00322404	3.10566	
1745	1	83	1.25135	0	0	0.0195803	-0.259044	0.0553932	-0.00412153	-0.0038963	-0.00230203	-0.348138	-2.67001	-0.0496967	-0.017173	-0.0162346	-0.00959179	3.09249	
1833	3	829	1.00603	0.010498	0	0.081289	-0.497159	0.0710189	-0.0582209	0.00798487	-0.00221173	-0.28051	-5.10091	-0.366094	-0.242587	0.0332703	-0.00921553	5.8495	
1834	0	97	0.999917	0.0129195	0	0.0789516	-0.453999	0.0708043	-0.031889	0.0224723	0.000161506	-0.18719	-4.62845	-0.255084	-0.132871	0.0936344	0.000672943	5.39147	
1834	1	96	0.999983	0.00574211	0	0.0789516	-0.453999	0.0708043	-0.031889	0.0224723	0.000161506	-0.18719	-4.62845	-0.255084	-0.132871	0.0936344	0.000672943	5.39147	
1834	2	829	1.00603	0.010498	0	0.0789516	-0.453999	0.0708043	-0.031889	0.0224723	0.000161506	-0.18719	-4.62845	-0.255084	-0.132871	0.0936344	0.000672943	5.39147	
1835	1	96	0.999983	0.00574211	0	0.111587	-0.49699	0.0722547	-0.0395753	0.00948285	0.0169106	0.0600349	-5.01144	-0.267733	-0.164897	0.0395119	0.0704607	5.95515	
1835	2	829	1.00603	0.010498	0	0.111587	-0.49699	0.0722547	-0.0395753	0.00948285	0.0169106	0.0600349	-5.01144	-0.267733	-0.164897	0.0395119	0.0704607	5.95515	
1887	3	746	1.00535	0.00467696	0	0.019772	0	0.0722186	-0.00590338	0.0105797	1.5021e-05	0.420297	0.255529	0.857351	-0.0245974	0.0440822	6.25876e-05	0.619199	
1888	0	843	1.00211	0.00269529	0	0.081216	-0.450231	0.073138	-0.0279082	0	0.00471233	-0.145082	-4.57381	-0.212398	-0.116284	0	0.0196347	5.37312	
1888	1	95	1.00366	0	0	0.081216	-0.450231	0.073138	-0.0279082	0	0.00471233	-0.145082	-4.57381	-0.212398	-0.116284	0	0.0196347	5.37312	
1888	2	746	1.00535	0.00467696	0	0.081216	-0.450231	0.073138	-0.0279082	0	0.00471233	-0.145082	-4.57381	-0.212398	-0.116284	0	0.0196347	5.37312	
1889	2	843	1.00211	0.00269529	0	0.0733122	-0.134117	0.0726823	-0.208333	0.00339715	0.0116525	0.643927	-1.08465	0.638679	-0.868052	0.0141548	0.0485519	2.59462	
1889	3	746	1.00535	0.00467696	0	0.0733122	-0.134117	0.0726823	-0.208333	0.00339715	0.0116525	0.643927	-1.08465	0.638679	-0.868052	0.0141548	0.0485519	2.59462	
1923	3	755	1.02512	0.0122286	0	0.0813474	-0.431146	0.0699779	0.00803616	0.0143832	-0.0063898	-0.099385	-4.37016	-0.19413	0.033484	0.0599298	-0.0266242	5.15512	
1924	1	755	1.02512	0.0122286	0	0.0824912	-0.401957	0.0683288	0.0428401	0.01514	0.000831766	-0.0101755	-4.04724	-0.128195	0.178501	0.0630835	0.00346569	4.85957	
1924	2	736	1.03604	0.0152172	0	0.0824912	-0.401957	0.0683288	0.0428401	0.01514	0.000831766	-0.0101755	-4.04724	-0.128195	0.178501	0.0630835	0.00346569	4.85957	
1925	1	755	1.02512	0.0122286	0	0.0804885	-0.408616	0.0688719	0.0519803	0.0115217	0.00114893	-0.0494166	-4.12529	-0.146221	0.216584	0.0480069	0.0047872	4.92819	
1925	2	736	1.03604	0.0152172	0	0.0804885	-0.408616	0.0688719	0.0519803	0.0115217	0.00114893	-0.0494166	-4.12529	-0.146221	0.216584	0.0480069	0.0047872	4.92819	
1977	3	788	1.01785	0.0058521	0	0.0416493	0	0.0713994	0.00282653	0.00461767	-0.00608455	0.661102	0.314024	0.90902	0.0117772	0.0192403	-0.0253523	0.646302	
1978	0	788	1.01785	0.0058521	0	0.0392025	-0.328801	0.0730072	0.00106146	0	0.000295976	-0.274956	-3.34166	0.0067501	0.00442273	0	0.00123323	3.98926	
1978	1	93	1.01394	0	0	0.0392025	-0.328801	0.0730072	0.00106146	0	0.000295976	-0.274956	-3.34166	0.0067501	0.00442273	0	0.00123323	3.98926	
1978	2	92	1.02108	0	0	0.0392025	-0.328801	0.0730072	0.00106146	0	0.000295976	-0.274956	-3.34166	0.0067501	0.00442273	0	0.00123323	3.98926	
1979	2	788	1.01785	0.0058521	0	0.0416493	-0.328801	0.0724401	0.00241193	-0.00365344	-0.00611367	-0.249345	-3.33643	0.00724513	0.0100497	-0.0152227	-0.0254736	3.99352	
1979	3	92	1.02108	0	0	0.0416493	-0.328801	0.0724401	0.00241193	-0.00365344	-0.00611367	-0.249345	-3.33643	0.00724513	0.0100497	-0.0152227	-0.0254736	3.99352	
2032	0	82	1.31785	0	0	0.0116491	-0.2087	0.0467857	-0.0118679	0	2.45881e-05	-0.320329	-2.15657	-0.0275241	-0.0494497	0	0.00010245	2.49521	
2032	1	81	1.40097	0	0	0.0116491	-0.2087	0.0467857	-0.0118679	0	2.45881e-05	-0.320329	-2.15657	-0.0275241	-0.0494497	0	0.00010245	2.49521	
2033	2	82	1.31785	0	0	0.00922705	-0.2087	0.0518452	-0.0105968	0.00266223	-0.00263213	-0.333186	-2.14925	0.0219655	-0.0441532	0.0110926	-0.0109672	2.52384	
2050	1	86	1.12156	0	0	0.0315462	-0.308066	0.0637446	-0.00350262	0	0.000437153	-0.328158	-3.15826	-0.0598376	-0.0145943	0	0.00182147	3.68858	
2050	2	85	1.1556	0	0	0.0315462	-0.308066	0.0637446	-0.00350262	0	0.000437153	-0.328158	-3.15826	-0.0598376	-0.0145943	0	0.00182147	3.68858	
2051	3	85	1.1556	0	0	0.0340933	-0.308066	0.061439	-0.00232879	-0.0026012	-0.00416679	-0.306261	-3.15759	-0.0783803	-0.00970329	-0.0108384	-0.0173616	3.68078	
2248	0	82	1.31785	0	0	0.0082625	-0.218909	0.0518452	0.00936037	0	0.00244044	-0.37226	-2.26535	-0.00907046	0.0390015	0	0.0101685	2.62442	
2410	0	84	1.19816	0	0	0.0185118	-0.269091	0.0589428	0.0128053	0	0.00077377	-0.37806	-2.77475	-0.041135	0.0533553	0	0.00322404	3.21766	
2572	0	88	1.07253	0	0	0.0528731	-0.349688	0.0653433	0.00255623	0	1.90125e-05	-0.202369	-3.55705	-0.0984506	0.0106509	0	7.92186e-05	4.19395	
2572	1	87	1.09432	0	0	0.0528731	-0.349688	0.0653433	0.00255623	0	1.90125e-05	-0.202369	-3.55705	-0.0984506	0.0106509	0	7.92186e-05	4.19395	
2573	2	88	1.07253	0	0	0.056113	-0.349688	0.0665721	0.000892898	0.00241147	-0.00552761	-0.162956	-3.54464	-0.0757973	0.00372041	0.0100478	-0.0230317	4.21339	
2824	1	86	1.12156	0	0	0.0353523	-0.317854	0.0637446	0.0129425	0	0.000437153	-0.313055	-3.25644	-0.0764532	0.053927	0	0.00182147	3.80169	
3130	1	779	1.05339	0.0149888	0	0.0541496	-0.369445	0.0677801	0.0370073	0.00860376	0.00112503	-0.236297	-3.76625	-0.12271	0.154197	0.035849	0.00468762	4.42504	
3131	1	779	1.05339	0.0149888	0	0.0489788	-0.349844	0.0678142	0.0196068	0.0038638	0.000208801	-0.239206	-3.56273	-0.0822452	0.0816949	0.0160992	0.000870006	4.20208	
3183	3	823	1.06502	0.011371	0	0.0587406	-0.351521	0.0670934	0.0130797	0.00116428	-0.00669989	-0.137403	-3.55625	-0.0677966	0.0544988	0.00485119	-0.0279162	4.24557	
3184	0	88	1.07253	0	0	0.0577575	-0.35798	0.0665721	0.0162078	0	-0.000828163	-0.167716	-3.63219	-0.0942609	0.0675323	0	-0.00345068	4.30488	
3184	2	823	1.06502	0.011371	0	0.0577575	-0.35798	0.0665721	0.0162078	0	-0.000828163	-0.167716	-3.63219	-0.0942609	0.0675323	0	-0.00345068	4.30488	
3185	2	823	1.06502	0.011371	0	0.0561608	-0.353764	0.0658444	0.0187734	-0.00353801	0.001513	-0.175767	-3.5918	-0.0950707	0.0782224	-0.0147417	0.00630418	4.25217	
3220	0	78	1.79708	0	0	0.0214146	-0.108888	0.0207812	-0.0219843	0	-9.46741e-06	-0.00680053	-1.09265	-0.0120789	-0.0916012	0	-3.94476e-05	1.33505	
3220	1	7	2	0	0	0.0214146	-0.108888	0.0207812	-0.0219843	0	-9.46741e-06	-0.00680053	-1.09265	-0.0120789	-0.0916012	0	-3.94476e-05	1.33505	
3221	2	78	1.79708	0	0	0.0213439	-0.108888	0.0281506	-0.0219509	0.00143023	-0.00286382	0.012885	-1.07238	0.0696074	-0.091462	0.0059593	-0.0119326	1.38516	
3292	0	81	1.40097	0	0	0.013484	-0.190049	0.0467857	-0.0159493	0	2.45881e-05	-0.248131	-1.94424	0.0293824	-0.0664555	0	0.00010245	2.31232	
3292	1	80	1.50486	0	0	0.013484	-0.190049	0.0467857	-0.0159493	0	2.45881e-05	-0.248131	-1.94424	0.0293824	-0.0664555	0	0.00010245	2.31232	
3293	1	80	1.50486	0	0	0.0152578	-0.190049	0.0419905	-0.0143446	-0.00347946	-0.00161044	-0.241742	-1.95263	-0.0189704	-0.0597693	-0.0144978	-0.00671018	2.28344	
3327	3	791	1.01085	0.00542889	0	0.0500452	-0.439117	0.0718327	0.00894403	0.0119328	-0.00249515	-0.464177	-4.54053	-0.282615	0.0372668	0.04972	-0.0103964	5.14297	
3328	0	791	1.01085	0.00542889	0	0.0644325	-0.414429	0.070292	0.0556062	0.0227867	0.000634951	-0.240019	-4.23053	-0.19119	0.231692	0.0949447	0.00264563	4.94636	
3328	1	788	1.01785	0.0058521	0	0.0644325	-0.414429	0.070292	0.0556062	0.0227867	0.000634951	-0.240019	-4.23053	-0.19119	0.231692	0.0949447	0.00264563	4.94636	
3328	2	733	1.0139	0.0133006	0	0.0644325	-0.414429	0.070292	0.0556062	0.0227867	0.000634951	-0.240019	-4.23053	-0.19119	0.231692	0.0949447	0.00264563	4.94636	
3329	1	788	1.01785	0.0058521	0	0.0643652	-0.417718	0.0713994	0.056893	0.0110847	0.00126057	-0.246828	-4.26419	-0.188209	0.237054	0.0461862	0.00525236	4.98581	
3329	2	791	1.01085	0.00542889	0	0.0643652	-0.417718	0.0713994	0.056893	0.0110847	0.00126057	-0.246828	-4.26419	-0.188209	0.237054	0.0461862	0.00525236	4.98581	
3364	0	855	1.0443	0.00986525	0	0.0487034	-0.349645	0.0688955	-0.0425269	0.0106213	-0.00122015	-0.238709	-3.55828	-0.0704417	-0.177196	0.0442553	-0.00508397	4.21603	
3364	2	736	1.03604	0.0152172	0	0.0487034	-0.349645	0.0688955	-0.0425269	0.0106213	-0.00122015	-0.238709	-3.55828	-0.0704417	-0.177196	0.0442553	-0.00508397	4.21603	
3365	2	736	1.03604	0.0152172	0	0.041359	-0.318905	0.0688719	-0.0697704	0.0158197	8.54041e-05	-0.234993	-3.23719	-0.00571814	-0.29071	0.0659156	0.00035585	3.90072	
3381	3	791	1.01085	0.00542889	0	0.04911	0	0.0718327	-0.00215968	0.00632058	-0.00215588	0.745202	0.335952	0.934557	-0.00899866	0.0263358	-0.00898285	0.666811	
3382	0	791	1.01085	0.00542889	0	0.0647272	-0.371639	0.0730072	0.0481212	0	0.000295976	-0.110342	-3.74673	-0.0413416	0.200505	0	0.00123323	4.52351	
3382	1	93	1.01394	0	0	0.0647272	-0.371639	0.0730072	0.0481212	0	0.000295976	-0.110342	-3.74673	-0.0413416	0.200505	0	0.00123323	4.52351	
3382	2	788	1.01785	0.0058521	0	0.0647272	-0.371639	0.0730072	0.0481212	0	0.000295976	-0.110342	-3.74673	-0.0413416	0.200505	0	0.00123323	4.52351	
3383	2	791	1.01085	0.00542889	0	0.0645128	-0.0289968	0.0713994	0.0309501	-0.000768685	0.0019772	0.834594	0.0553477	0.891983	0.128959	-0.00320286	0.00823834	1.0265	
3383	3	788	1.01785	0.0058521	0	0.0645128	-0.0289968	0.0713994	0.0309501	-0.000768685	0.0019772	0.834594	0.0553477	0.891983	0.128959	-0.00320286	0.00823834	1.0265	
3399	3	755	1.02512	0.0122286	0	0.0693556	-0.502803	0.0699779	0.0714655	0.0152802	-0.0066353	-0.431673	-5.19966	-0.426487	0.297773	0.0636676	-0.0276471	5.86775	
3400	0	736	1.03604	0.0152172	0	0.0708966	-0.421562	0.0697426	0.0905727	0.0247658	-0.000966526	-0.189537	-4.29336	-0.199154	0.377386	0.103191	-0.00402719	5.06384	
3400	1	755	1.02512	0.0122286	0	0.0708966	-0.421562	0.0697426	0.0905727	0.0247658	-0.000966526	-0.189537	-4.29336	-0.199154	0.377386	0.103191	-0.00402719	5.06384	
3400	2	854	1.03435	0.00676916	0	0.0708966	-0.421562	0.0697426	0.0905727	0.0247658	-0.000966526	-0.189537	-4.29336	-0.199154	0.377386	0.103191	-0.00402719	5.06384	
3401	1	755	1.02512	0.0122286	0	0.0683199	-0.5135	0.0688719	0.125148	0.00687046	0.00242187	-0.475968	-5.32447	-0.471368	0.521448	0.0286269	0.0100911	6.01041	
3401	2	736	1.03604	0.0152172	0	0.0683199	-0.5135	0.0688719	0.125148	0.00687046	0.00242187	-0.475968	-5.32447	-0.471368	0.521448	0.0286269	0.0100911	6.01041	
3418	0	83	1.25135	0	0	0.0130182	-0.233544	0.0518452	-0.00651262	0	0.00244044	-0.360073	-2.41476	-0.0365144	-0.0271359	0	0.0101685	2.78737	
3418	1	82	1.31785	0	0	0.0130182	-0.233544	0.0518452	-0.00651262	0	0.00244044	-0.360073	-2.41476	-0.0365144	-0.0271359	0	0.0101685	2.78737	
3419	2	83	1.25135	0	0	0.0119923	-0.233544	0.0553932	-0.00598343	0.00229242	-0.00118692	-0.361616	-2.40776	5.74934e-05	-0.024931	0.00955174	-0.00494549	2.80947	
3436	1	85	1.1556	0	0	0.0247884	-0.282717	0.0589428	-0.00412987	0	0.00077377	-0.346168	-2.90871	-0.061548	-0.0172078	0	0.00322404	3.37499	
3436	2	84	1.19816	0	0	0.0247884	-0.282717	0.0589428	-0.00412987	0	0.00077377	-0.346168	-2.90871	-0.061548	-0.0172078	0	0.00322404	3.37499	
3437	1	85	1.1556	0	0	0.0234103	-0.282717	0.061439	-0.00314968	0.00347638	-0.00341008	-0.354546	-2.9056	-0.0376402	-0.0131237	0.0144849	-0.0142087	3.38835	
3454	1	97	0.999917	0.0129195	0	0.0886992	-0.431587	0.0708043	0.00716604	0.0224723	0.000161506	-0.0166262	-4.35234	-0.165751	0.0298585	0.0936344	0.000672943	5.19189	
3526	0	87	1.09432	0	0	0.0429657	-0.330533	0.0637446	-0.000292097	0	0.000437153	-0.263683	-3.37618	-0.0905255	-0.00121707	0	0.00182147	3.95466	
3526	1	86	1.12156	0	0	0.0429657	-0.330533	0.0637446	-0.000292097	0	0.000437153	-0.263683	-3.37618	-0.0905255	-0.00121707	0	0.00182147	3.95466	
3527	2	87	1.09432	0	0	0.0442449	-0.330533	0.0653433	-0.000963077	0.00256689	-0.00487169	-0.245029	-3.36818	-0.0692092	-0.00401282	0.0106954	-0.0202987	3.97012	
3634	2	823	1.06502	0.011371	0	0.0547792	-0.363001	0.0658444	0.0259175	0.000720482	-0.000114331	-0.216777	-3.69828	-0.124567	0.107989	0.00300201	-0.000476379	4.3436	
3635	2	823	1.06502	0.011371	0	0.0567855	-0.363301	0.0670934	0.0226961	0.00088459	-0.00659302	-0.191849	-3.69257	-0.105949	0.0945671	0.00368579	-0.0274709	4.36125	
3670	1	85	1.1556	0	0	0.0269101	-0.298099	0.061439	0.0159882	0	0.0014776	-0.358389	-3.0668	-0.0706478	0.0666177	0	0.00615665	3.55782	
3705	3	89	1.0551	0	0	0.0938481	-0.335285	0.0679753	0.0549608	-0.00739765	-0.0165459	0.300229	-3.27588	0.0846224	0.229004	-0.0308235	-0.0689412	4.22631	
3706	0	855	1.0443	0.00986525	0	0.0790851	-0.425005	0.0702935	0.0264039	0	-0.00515708	-0.106586	-4.30733	-0.179849	0.110016	0	-0.0214878	5.08891	
3706	1	90	1.04116	0	0	0.0790851	-0.425005	0.0702935	0.0264039	0	-0.00515708	-0.106586	-4.30733	-0.179849	0.110016	0	-0.0214878	5.08891	
3706	2	89	1.0551	0	0	0.0790851	-0.425005	0.0702935	0.0264039	0	-0.00515708	-0.106586	-4.30733	-0.179849	0.110016	0	-0.0214878	5.08891	
3707	2	855	1.0443	0.00986525	0	0.10262	-0.355494	0.0688955	0.115663	0.00147256	-0.00957704	0.344114	-3.47351	0.063077	0.481928	0.00613566	-0.0399043	4.52727	
3707	3	89	1.0551	0	0	0.10262	-0.355494	0.0688955	0.115663	0.00147256	-0.00957704	0.344114	-3.47351	0.063077	0.481928	0.00613566	-0.0399043	4.52727	
3868	2	83	1.25135	0	0	0.0148324	-0.244355	0.0553932	0.0135179	0	0.00325913	-0.360089	-2.51998	-0.0220818	0.0563244	0	0.0135797	2.92953	
3886	1	87	1.09432	0	0	0.0463924	-0.338629	0.0653433	0.0133355	0	1.90125e-05	-0.243657	-3.45217	-0.0857329	0.0555647	0	7.92186e-05	4.06072	
3922	1	78	1.79708	0	0	0.0218312	-0.123623	0.0314602	0.00899839	0.000692	0.00134264	-0.0134373	-1.22555	0.0668036	0.0374933	0.00288334	0.00559435	1.55214	
3923	1	78	1.79708	0	0	0.0212265	-0.123455	0.0281506	0.00892955	0.000801476	-0.00153336	-0.0288845	-1.23456	0.0288163	0.0372065	0.00333948	-0.00638899	1.52554	
4029	3	791	1.01085	0.00542889	0	0.0517464	0	0.0718327	-0.000657418	0.00817752	0.00110653	0.774495	0.343275	0.941881	-0.00273924	0.034073	0.00461053	0.674443	
4030	0	94	1.00822	0	0	0.0697619	-0.408132	0.0730532	-0.0131266	0	0.00153256	-0.155643	-4.13809	-0.128215	-0.0546942	0	0.00638565	4.90083	
4030	1	93	1.01394	0	0	0.0697619	-0.408132	0.0730532	-0.0131266	0	0.00153256	-0.155643	-4.13809	-0.128215	-0.0546942	0	0.00638565	4.90083	
4030	2	791	1.01085	0.00542889	0	0.0697619	-0.408132	0.0730532	-0.0131266	0	0.00153256	-0.155643	-4.13809	-0.128215	-0.0546942	0	0.00638565	4.90083	
4031	1	93	1.01394	0	0	0.0517464	-0.408132	0.0730072	-0.0233806	-0.000381227	-0.000373811	-0.355942	-4.18826	-0.178768	-0.0974191	-0.00158845	-0.00155755	4.8423	
4031	2	791	1.01085	0.00542889	0	0.0517464	-0.408132	0.0730072	-0.0233806	-0.000381227	-0.000373811	-0.355942	-4.18826	-0.178768	-0.0974191	-0.00158845	-0.00155755	4.8423	
4084	1	81	1.40097	0	0	0.0089105	-0.19908	0.0467857	0.00311841	0	2.45881e-05	-0.324033	-2.05728	-0.00840686	0.0129934	0	0.00010245	2.38757	
4101	3	746	1.00535	0.00467696	0	0.0578289	0	0.0722186	-0.00360342	0.0090464	-0.00105521	0.84315	0.361243	0.963064	-0.0150142	0.0376933	-0.00439669	0.6952	
4102	0	746	1.00535	0.00467696	0	0.0695268	-0.433061	0.0730532	0.0384471	0	0.00153256	-0.227502	-4.41573	-0.198115	0.160196	0	0.00638565	5.16101	
4102	1	94	1.00822	0	0	0.0695268	-0.433061	0.0730532	0.0384471	0	0.00153256	-0.227502	-4.41573	-0.198115	0.160196	0	0.00638565	5.16101	
4102	2	791	1.01085	0.00542889	0	0.0695268	-0.433061	0.0730532	0.0384471	0	0.00153256	-0.227502	-4.41573	-0.198115	0.160196	0	0.00638565	5.16101	
4103	2	746	1.00535	0.00467696	0	0.0689809	0.00401896	0.0718327	-0.0173026	0.00652417	0.00451939	0.977154	0.435804	1.00092	-0.0720942	0.0271841	0.0188308	0.696245	
4103	3	791	1.01085	0.00542889	0	0.0689809	0.00401896	0.0718327	-0.0173026	0.00652417	0.00451939	0.977154	0.435804	1.00092	-0.0720942	0.0271841	0.0188308	0.696245	
4137	3	89	1.0551	0	0	0.065876	-0.357313	0.0679753	0.0042156	-0.00190415	-0.0115278	-0.0717603	-3.59834	-0.0542668	0.017565	-0.00793398	-0.0480326	4.33438	
4138	0	89	1.0551	0	0	0.0630218	-0.37176	0.0688955	0.0574539	0.0106213	-0.00122015	-0.141047	-3.76423	-0.0920991	0.239391	0.0442553	-0.00508397	4.49734	
4138	1	779	1.05339	0.0149888	0	0.0630218	-0.37176	0.0688955	0.0574539	0.0106213	-0.00122015	-0.141047	-3.76423	-0.0920991	0.239391	0.0442553	-0.00508397	4.49734	
4138	2	855	1.0443	0.00986525	0	0.0630218	-0.37176	0.0688955	0.0574539	0.0106213	-0.00122015	-0.141047	-3.76423	-0.0920991	0.239391	0.0442553	-0.00508397	4.49734	
4139	1	779	1.05339	0.0149888	0	0.0739219	-0.378257	0.0678142	0.00174494	0.0029467	-0.00926925	-0.0409869	-3.80915	-0.0918849	0.00727058	0.0122779	-0.0386219	4.57413	
4139	2	89	1.0551	0	0	0.0739219	-0.378257	0.0678142	0.00174494	0.0029467	-0.00926925	-0.0409869	-3.80915	-0.0918849	0.00727058	0.0122779	-0.0386219	4.57413	
4192	1	7	2	0	0	0.00821922	-0.0757228	0.0207812	0.000759355	0	-9.46741e-06	-0.0612908	-0.760807	0.0433919	0.00316398	0	-3.94476e-05	0.944155	
4659	3	746	1.00535	0.00467696	0	0.0488573	0	0.0722186	-0.0534605	0.0120463	-0.000882049	0.743466	0.336322	0.938143	-0.222752	0.050193	-0.0036752	0.775581	
4660	0	746	1.00535	0.00467696	0	0.0818026	-0.391537	0.0722547	-0.0647696	0.0262018	0.00376135	0.0220233	-3.92247	-0.0575427	-0.269873	0.109174	0.0156723	4.79293	
4660	1	96	0.999983	0.00574211	0	0.0818026	-0.391537	0.0722547	-0.0647696	0.0262018	0.00376135	0.0220233	-3.92247	-0.0575427	-0.269873	0.109174	0.0156723	4.79293	
4660	2	843	1.00211	0.00269529	0	0.0818026	-0.391537	0.0722547	-0.0647696	0.0262018	0.00376135	0.0220233	-3.92247	-0.0575427	-0.269873	0.109174	0.0156723	4.79293	
4661	2	746	1.00535	0.00467696	0	0.0995742	-0.154224	0.0726823	-0.238973	0.00562457	0.0102901	0.879875	-1.23511	0.655776	-0.99572	0.0234357	0.0428755	2.96539	
4661	3	843	1.00211	0.00269529	0	0.0995742	-0.154224	0.0726823	-0.238973	0.00562457	0.0102901	0.879875	-1.23511	0.655776	-0.99572	0.0234357	0.0428755	2.96539	
4749	3	860	1.0258	0.00480335	0	0.0524411	0	0.0708997	0.00878538	0.00640512	-0.00799783	0.779623	0.342613	0.933444	0.0366057	0.026688	-0.0333243	0.673838	
4750	0	788	1.01785	0.0058521	0	0.0611388	-0.369696	0.0724401	-0.0609219	0	0.000505616	-0.146392	-3.73669	-0.0522145	-0.253841	0	0.00210673	4.49597	
4750	1	92	1.02108	0	0	0.0611388	-0.369696	0.0724401	-0.0609219	0	0.000505616	-0.146392	-3.73669	-0.0522145	-0.253841	0	0.00210673	4.49597	
4750	2	860	1.0258	0.00480335	0	0.0611388	-0.369696	0.0724401	-0.0609219	0	0.000505616	-0.146392	-3.73669	-0.0522145	-0.253841	0	0.00210673	4.49597	
4751	2	788	1.01785	0.0058521	0	0.0611994	-0.0150747	0.0713994	-0.0136953	0.00710739	-0.00157369	0.836451	0.200834	0.921451	-0.0570637	0.0296141	-0.00655703	0.856635	
4751	3	860	1.0258	0.00480335	0	0.0611994	-0.0150747	0.0713994	-0.0136953	0.00710739	-0.00157369	0.836451	0.200834	0.921451	-0.0570637	0.0296141	-0.00655703	0.856635	
4767	3	89	1.0551	0	0	0.0761167	-0.358242	0.0679753	0.0143799	-0.000610086	-0.00939605	0.0394436	-3.58021	-0.0284014	0.0599163	-0.00254203	-0.0391502	4.37969	
4768	0	823	1.06502	0.011371	0	0.067227	-0.368651	0.0665721	0.0063045	0	-0.000828163	-0.0921426	-3.72446	-0.0976001	0.0262688	0	-0.00345068	4.44445	
4768	1	89	1.0551	0	0	0.067227	-0.368651	0.0665721	0.0063045	0	-0.000828163	-0.0921426	-3.72446	-0.0976001	0.0262688	0	-0.00345068	4.44445	
4768	2	88	1.07253	0	0	0.067227	-0.368651	0.0665721	0.0063045	0	-0.000828163	-0.0921426	-3.72446	-0.0976001	0.0262688	0	-0.00345068	4.44445	
4769	1	89	1.0551	0	0	0.065789	-0.362727	0.0670934	0.000767394	0.00359477	-0.00301985	-0.0902158	-3.66118	-0.0793457	0.00319748	0.0149782	-0.0125827	4.38254	
4769	2	823	1.06502	0.011371	0	0.065789	-0.362727	0.0670934	0.000767394	0.00359477	-0.00301985	-0.0902158	-3.66118	-0.0793457	0.00319748	0.0149782	-0.0125827	4.38254	
4893	3	779	1.05339	0.0149888	0	0.0611991	-0.36246	0.0678142	0.0154101	-0.00191995	-0.00652624	-0.138472	-3.66897	-0.083346	0.0642086	-0.00799978	-0.0271927	4.37077	
4894	0	855	1.0443	0.00986525	0	0.0568174	-0.353327	0.0688955	0.0580676	0.0106213	-0.00122015	-0.158783	-3.57666	-0.0581322	0.241948	0.0442553	-0.00508397	4.28981	
4894	1	779	1.05339	0.0149888	0	0.0568174	-0.353327	0.0688955	0.0580676	0.0106213	-0.00122015	-0.158783	-3.57666	-0.0581322	0.241948	0.0442553	-0.00508397	4.28981	
4895	1	779	1.05339	0.0149888	0	0.0713063	-0.36403	0.0677801	0.0580461	0.00268613	-0.00576589	-0.0306242	-3.65843	-0.0600098	0.241859	0.0111922	-0.0240245	4.43922	
4911	3	854	1.03435	0.00676916	0	0.0178378	0	0.0697426	0.0284711	0.0102861	-0.00861765	0.391927	0.243279	0.824467	0.11863	0.0428589	-0.0359069	0.632792	
4912	0	854	1.03435	0.00676916	0	0.0276667	-0.304885	0.0702935	-0.0132294	0	-0.00515708	-0.344235	-3.1155	0.0109877	-0.0551225	0	-0.0214878	3.69126	
4912	1	91	1.03	0	0	0.0276667	-0.304885	0.0702935	-0.0132294	0	-0.00515708	-0.344235	-3.1155	0.0109877	-0.0551225	0	-0.0214878	3.69126	
4912	2	90	1.04116	0	0	0.0276667	-0.304885	0.0702935	-0.0132294	0	-0.00515708	-0.344235	-3.1155	0.0109877	-0.0551225	0	-0.0214878	3.69126	
4913	1	91	1.03	0	0	0.0178378	-0.304885	0.0713181	-0.0069139	0.00491677	-0.0114919	-0.4506	-3.13996	-0.00493007	-0.0288079	0.0204865	-0.047883	3.66815	
4913	2	854	1.03435	0.00676916	0	0.0178378	-0.304885	0.0713181	-0.0069139	0.00491677	-0.0114919	-0.4506	-3.13996	-0.00493007	-0.0288079	0.0204865	-0.047883	3.66815	
4983	3	860	1.0258	0.00480335	0	0.0403502	0	0.0708997	0.0206664	0.0090817	-0.0107217	0.64528	0.309028	0.899859	0.08611	0.0378404	-0.0446736	0.661923	
4984	0	92	1.02108	0	0	0.0809556	-0.442504	0.0713181	-0.00630158	0	-0.00384078	-0.131565	-4.49373	-0.211878	-0.0262566	0	-0.0160033	5.27744	
4984	1	91	1.03	0	0	0.0809556	-0.442504	0.0713181	-0.00630158	0	-0.00384078	-0.131565	-4.49373	-0.211878	-0.0262566	0	-0.0160033	5.27744	
4984	2	860	1.0258	0.00480335	0	0.0809556	-0.442504	0.0713181	-0.00630158	0	-0.00384078	-0.131565	-4.49373	-0.211878	-0.0262566	0	-0.0160033	5.27744	
4985	2	92	1.02108	0	0	0.0403502	-0.442504	0.0724401	0.0335992	0.0103	-0.00997622	-0.579619	-4.60341	-0.312204	0.139997	0.0429165	-0.0415676	5.15552	
4985	3	860	1.0258	0.00480335	0	0.0403502	-0.442504	0.0724401	0.0335992	0.0103	-0.00997622	-0.579619	-4.60341	-0.312204	0.139997	0.0429165	-0.0415676	5.15552	
5127	3	89	1.0551	0	0	0.0648369	-0.35539	0.0679753	0.0209503	-0.00153941	-0.00833083	-0.077965	-3.57986	-0.0518124	0.0872929	-0.00641421	-0.0347118	4.31339	
5128	0	823	1.06502	0.011371	0	0.0641917	-0.376307	0.0670934	0.017727	0.00142037	-0.000527393	-0.145686	-3.81651	-0.121505	0.0738624	0.00591819	-0.00219747	4.51741	
5128	1	779	1.05339	0.0149888	0	0.0641917	-0.376307	0.0670934	0.017727	0.00142037	-0.000527393	-0.145686	-3.81651	-0.121505	0.0738624	0.00591819	-0.00219747	4.51741	
5128	2	89	1.0551	0	0	0.0641917	-0.376307	0.0670934	0.017727	0.00142037	-0.000527393	-0.145686	-3.81651	-0.121505	0.0738624	0.00591819	-0.00219747	4.51741	
5129	1	779	1.05339	0.0149888	0	0.0599369	-0.378501	0.0678142	-0.00199218	0.00339849	-0.00530906	-0.197055	-3.85071	-0.131411	-0.00830073	0.0141604	-0.0221211	4.5288	
5129	2	89	1.0551	0	0	0.0599369	-0.378501	0.0678142	-0.00199218	0.00339849	-0.00530906	-0.197055	-3.85071	-0.131411	-0.00830073	0.0141604	-0.0221211	4.5288	
5343	3	860	1.0258	0.00480335	0	0.0359565	0	0.0708997	0.0168259	0.0112511	-0.00824071	0.59646	0.296823	0.887654	0.0701078	0.0468794	-0.0343363	0.647184	
5344	0	860	1.0258	0.00480335	0	0.0538131	-0.363182	0.0713181	0.0606839	0	-0.00384078	-0.21281	-3.68777	-0.0669341	0.252849	0	-0.0160033	4.3978	
5344	1	91	1.03	0	0	0.0538131	-0.363182	0.0713181	0.0606839	0	-0.00384078	-0.21281	-3.68777	-0.0669341	0.252849	0	-0.0160033	4.3978	
5344	2	854	1.03435	0.00676916	0	0.0538131	-0.363182	0.0713181	0.0606839	0	-0.00384078	-0.21281	-3.68777	-0.0669341	0.252849	0	-0.0160033	4.3978	
5345	2	860	1.0258	0.00480335	0	0.0442687	-0.0054401	0.0697426	0.0199508	0.00200666	0.00426624	0.670492	0.256252	0.882775	0.0831282	0.00836108	0.017776	0.707259	
5345	3	854	1.03435	0.00676916	0	0.0442687	-0.0054401	0.0697426	0.0199508	0.00200666	0.00426624	0.670492	0.256252	0.882775	0.0831282	0.00836108	0.017776	0.707259	
5793	3	829	1.00603	0.010498	0	0.0926409	-0.443297	0.0710189	-0.00823065	0.0131988	-0.000146322	-0.00476252	-4.47091	-0.184946	-0.0342944	0.0549951	-0.000609674	5.32498	
5794	0	829	1.00603	0.010498	0	0.0822981	-0.403563	0.0708043	-0.00346488	0.0224723	0.000161506	-0.00990583	-4.05875	-0.105687	-0.014437	0.0936344	0.000672943	4.88366	
5794	2	97	0.999917	0.0129195	0	0.0822981	-0.403563	0.0708043	-0.00346488	0.0224723	0.000161506	-0.00990583	-4.05875	-0.105687	-0.014437	0.0936344	0.000672943	4.88366	
5795	2	829	1.00603	0.010498	0	0.0770213	-0.402118	0.0699747	-0.0150221	0.0228175	-0.0110455	-0.0668274	-4.05965	-0.125549	-0.0625919	0.0950727	-0.0460228	4.84703	
5973	3	843	1.00211	0.00269529	0	-0.0255601	0	0.0726823	-0.0319791	-0.00166068	0.00285759	-0.0821057	0.130895	0.736581	-0.133246	-0.0069195	0.0119066	0.665862	
5974	0	843	1.00211	0.00269529	0	0.0866274	-0.427302	0.0732443	0.0150694	0	0.00963961	-0.0209666	-4.30371	-0.132493	0.0627892	0	0.040165	5.15623	
5974	1	8	1	0	0	0.0866274	-0.427302	0.0732443	0.0150694	0	0.00963961	-0.0209666	-4.30371	-0.132493	0.0627892	0	0.040165	5.15623	
5974	2	95	1.00366	0	0	0.0866274	-0.427302	0.0732443	0.0150694	0	0.00963961	-0.0209666	-4.30371	-0.132493	0.0627892	0	0.040165	5.15623	
5975	2	843	1.00211	0.00269529	0	-0.0255601	-0.427302	0.073138	-0.049444	-0.00139152	0.00229261	-1.26779	-4.61564	-0.445306	-0.206017	-0.00579802	0.00955255	4.80868	
5975	3	95	1.00366	0	0	-0.0255601	-0.427302	0.073138	-0.049444	-0.00139152	0.00229261	-1.26779	-4.61564	-0.445306	-0.206017	-0.00579802	0.00955255	4.80868	
6118	1	779	1.05339	0.0149888	0	0.0641036	-0.36347	0.0670934	0.0214332	0.00142037	-0.000527393	-0.111005	-3.67412	-0.0860898	0.089305	0.00591819	-0.00219747	4.38701	
6118	2	823	1.06502	0.011371	0	0.0641036	-0.36347	0.0670934	0.0214332	0.00142037	-0.000527393	-0.111005	-3.67412	-0.0860898	0.089305	0.00591819	-0.00219747	4.38701	
6119	1	779	1.05339	0.0149888	0	0.0608891	-0.350531	0.0678142	0.00976969	0.00761133	-0.00399856	-0.108779	-3.53728	-0.05107	0.040707	0.0317139	-0.0166607	4.24733	
6405	3	733	1.0139	0.0133006	0	0.0661469	-0.443928	0.070292	0.000230425	0.0113557	-0.00299205	-0.302912	-4.55353	-0.26837	0.000960102	0.0473155	-0.0124669	5.23486	
6406	0	733	1.0139	0.0133006	0	0.0686664	-0.407239	0.0699747	0.0291499	0.0215365	-0.000243698	-0.173884	-4.13976	-0.162982	0.121458	0.0897354	-0.00101541	4.87312	
6406	2	829	1.00603	0.010498	0	0.0686664	-0.407239	0.0699747	0.0291499	0.0215365	-0.000243698	-0.173884	-4.13976	-0.162982	0.121458	0.0897354	-0.00101541	4.87312	
6407	2	733	1.0139	0.0133006	0	0.0762302	-0.446645	0.0710189	0.0219468	0.0124751	0.00595699	-0.196404	-4.5537	-0.239831	0.0914452	0.0519795	0.0248208	5.30448	
6407	3	829	1.00603	0.010498	0	0.0762302	-0.446645	0.0710189	0.0219468	0.0124751	0.00595699	-0.196404	-4.5537	-0.239831	0.0914452	0.0519795	0.0248208	5.30448	
6639	3	733	1.0139	0.0133006	0	0.0811998	-0.448138	0.070292	0.0207404	0.0136613	-0.00149867	-0.147352	-4.5585	-0.238251	0.0864184	0.0569221	-0.00624445	5.3316	
6640	2	733	1.0139	0.0133006	0	0.0734609	-0.416543	0.0699747	0.0305222	0.0215365	-0.000243698	-0.146456	-4.22982	-0.175508	0.127176	0.0897354	-0.00101541	4.98468	
6641	3	733	1.0139	0.0133006	0	0.0793655	-0.418068	0.0695402	0.0137921	0.019685	-0.0052635	-0.0862952	-4.23158	-0.168173	0.0574672	0.0820209	-0.0219313	5.01343	
6657	3	860	1.0258	0.00480335	0	0.0517529	-0.397092	0.0708997	-0.0488234	0.014549	-0.00692347	-0.331057	-4.07143	-0.171501	-0.203431	0.0606206	-0.0288478	4.72677	
6658	0	755	1.02512	0.0122286	0	0.0599008	-0.366192	0.0713994	-0.0698525	0.0230902	0.000534731	-0.153302	-3.70407	-0.0574805	-0.291052	0.096209	0.00222805	4.4591	
6658	1	788	1.01785	0.0058521	0	0.0599008	-0.366192	0.0713994	-0.0698525	0.0230902	0.000534731	-0.153302	-3.70407	-0.0574805	-0.291052	0.096209	0.00222805	4.4591	
6658	2	860	1.0258	0.00480335	0	0.0599008	-0.366192	0.0713994	-0.0698525	0.0230902	0.000534731	-0.153302	-3.70407	-0.0574805	-0.291052	0.096209	0.00222805	4.4591	
6659	2	755	1.02512	0.0122286	0	0.0521824	-0.366688	0.0699779	-0.0759785	0.0211981	-0.0152753	-0.24439	-3.73498	-0.096094	-0.316577	0.0883253	-0.0636472	4.43506	
6659	3	860	1.0258	0.00480335	0	0.0521824	-0.366688	0.0699779	-0.0759785	0.0211981	-0.0152753	-0.24439	-3.73498	-0.096094	-0.316577	0.0883253	-0.0636472	4.43506	
7000	0	736	1.03604	0.0152172	0	0.073846	-0.416955	0.0683288	0.00890738	0.01514	0.000831766	-0.147895	-4.23791	-0.193873	0.0371141	0.0630835	0.00346569	4.97337	
7001	2	736	1.03604	0.0152172	0	0.0679543	-0.421817	0.0688719	0.0196126	0.0127182	0.00350594	-0.225356	-4.30679	-0.217709	0.081719	0.0529926	0.0146081	5.00786	
7143	3	855	1.0443	0.00986525	0	0.0561085	-0.254702	0.0688955	-0.186202	2.0661e-05	-0.00501549	0.107297	-2.48279	0.213857	-0.775842	8.60874e-05	-0.0208979	3.52609	
7144	0	854	1.03435	0.00676916	0	0.0699517	-0.396135	0.0702935	-0.0613919	0	-0.00515708	-0.127874	-4.01193	-0.125026	-0.2558	0	-0.0214878	4.78003	
7144	1	90	1.04116	0	0	0.0699517	-0.396135	0.0702935	-0.0613919	0	-0.00515708	-0.127874	-4.01193	-0.125026	-0.2558	0	-0.0214878	4.78003	
7144	2	855	1.0443	0.00986525	0	0.0699517	-0.396135	0.0702935	-0.0613919	0	-0.00515708	-0.127874	-4.01193	-0.125026	-0.2558	0	-0.0214878	4.78003	
7145	2	854	1.03435	0.00676916	0	0.057727	-0.163937	0.0697426	-0.0943541	0.0196004	0.000640769	0.379759	-1.46744	0.479888	-0.393142	0.0816683	0.00266987	2.44579	
7145	3	855	1.0443	0.00986525	0	0.057727	-0.163937	0.0697426	-0.0943541	0.0196004	0.000640769	0.379759	-1.46744	0.479888	-0.393142	0.0816683	0.00266987	2.44579	
7161	3	736	1.03604	0.0152172	0	0.0597736	-0.461383	0.0688719	-0.133666	0.00831112	-0.0047797	-0.426158	-4.76913	-0.350338	-0.556942	0.0346297	-0.0199154	5.46734	
7162	0	855	1.0443	0.00986525	0	0.0649909	-0.393981	0.0697426	-0.0461163	0.0247658	-0.000966526	-0.178543	-4.00331	-0.138946	-0.192151	0.103191	-0.00402719	4.73186	
7162	1	736	1.03604	0.0152172	0	0.0649909	-0.393981	0.0697426	-0.0461163	0.0247658	-0.000966526	-0.178543	-4.00331	-0.138946	-0.192151	0.103191	-0.00402719	4.73186	
7162	2	854	1.03435	0.00676916	0	0.0649909	-0.393981	0.0697426	-0.0461163	0.0247658	-0.000966526	-0.178543	-4.00331	-0.138946	-0.192151	0.103191	-0.00402719	4.73186	
7163	1	736	1.03604	0.0152172	0	0.0635559	-0.517497	0.0688955	-0.128361	0.00322492	-0.00601252	-0.539938	-5.38204	-0.49544	-0.534839	0.0134372	-0.0250522	6.03841	
7163	2	855	1.0443	0.00986525	0	0.0635559	-0.517497	0.0688955	-0.128361	0.00322492	-0.00601252	-0.539938	-5.38204	-0.49544	-0.534839	0.0134372	-0.0250522	6.03841	
