%element	local	global	x	y	z	dx	dy	dz	e11	e22	e33	e12	e23	e13	s11	s22	s33	s12	s23	s13	von
1159	17	11348	-0.023	0.0026	0.25	1.30496e-11	-9.5913e-09	-1.30725e-09	-5.10993e-10	-5.11029e-10	1.70397e-09	2.80686e-12	-6.03925e-11	5.43513e-12	7.52545e-05	6.94794e-05	0.357877	0.000226708	-0.00487786	0.000438991	0.357908	
1159	18	19453	-0.01978	0.0026	0.25	1.14026e-11	-9.58087e-09	-1.3087e-09	-5.11956e-10	-5.13056e-10	1.70976e-09	4.52816e-11	-4.03583e-11	-3.5202e-10	0.000259835	8.22308e-05	0.359153	0.00365736	-0.00325971	-0.0284324	0.362532	
1159	25	19455	-0.02139	0.0026	0.25	1.22265e-11	-9.58607e-09	-1.30785e-09	-5.11475e-10	-5.11961e-10	1.70636e-09	2.01155e-11	-4.52851e-11	-1.73416e-10	0.000116074	3.74904e-05	0.358382	0.00162472	-0.00365764	-0.0140066	0.359231	
1160	9	11348	-0.023	0.0026	0.25	1.30496e-11	-9.5913e-09	-1.30725e-09	-5.10993e-10	-5.11029e-10	1.70397e-09	2.80686e-12	-5.75136e-11	-5.59471e-12	7.59469e-05	7.01718e-05	0.357878	0.000226708	-0.00464533	-0.000451881	0.3579	
1160	11	19453	-0.01978	0.0026	0.25	1.14026e-11	-9.58087e-09	-1.3087e-09	-5.11956e-10	-5.13056e-10	1.70978e-09	4.52816e-11	-3.6724e-11	-3.58892e-10	0.000261253	8.36492e-05	0.359157	0.00365736	-0.00296617	-0.0289874	0.362658	
1160	20	19455	-0.02139	0.0026	0.25	1.22265e-11	-9.58607e-09	-1.30785e-09	-8.84712e-10	-8.85199e-10	2.95048e-09	2.01154e-11	-3.98368e-11	-1.51195e-10	0.000115938	3.73164e-05	0.619648	0.00162471	-0.00321759	-0.0122119	0.620003	
1191	17	19453	-0.01978	0.0026	0.25	1.14026e-11	-9.58087e-09	-1.3087e-09	-5.11973e-10	-5.13056e-10	1.70976e-09	5.08286e-11	-4.03583e-11	-3.52182e-10	0.000255228	8.02563e-05	0.359151	0.00410539	-0.00325971	-0.0284455	0.362549	
1191	18	19579	-0.01656	0.0026	0.25	9.74703e-12	-9.57066e-09	-1.31116e-09	-5.16349e-10	-5.1539e-10	1.71959e-09	9.31945e-11	-3.82493e-11	-7.08884e-10	-7.43064e-05	8.06326e-05	0.361116	0.00752725	-0.00308937	-0.057256	0.374673	
1191	25	19581	-0.01817	0.0026	0.25	1.05766e-11	-9.57572e-09	-1.3098e-09	-5.14161e-10	-5.14143e-10	1.71418e-09	6.02735e-11	-3.86166e-11	-5.30609e-10	3.91879e-05	4.204e-05	0.360001	0.00486824	-0.00311903	-0.0428569	0.36767	
1192	9	19453	-0.01978	0.0026	0.25	1.14026e-11	-9.58087e-09	-1.3087e-09	-5.11973e-10	-5.13056e-10	1.70978e-09	5.08286e-11	-3.6724e-11	-3.59054e-10	0.000256646	8.16747e-05	0.359155	0.00410539	-0.00296617	-0.0290005	0.362675	
1192	11	19579	-0.01656	0.0026	0.25	9.74703e-12	-9.57066e-09	-1.31116e-09	-5.16349e-10	-5.1539e-10	1.71965e-09	9.31945e-11	-3.45295e-11	-7.13168e-10	-6.76408e-05	8.72981e-05	0.361132	0.00752725	-0.00278892	-0.057602	0.374834	
1192	20	19581	-0.01817	0.0026	0.25	1.05766e-11	-9.57572e-09	-1.3098e-09	-8.87397e-10	-8.87381e-10	2.9583e-09	6.02734e-11	-3.40227e-11	-4.63943e-10	3.95442e-05	4.22292e-05	0.621268	0.00486824	-0.00274799	-0.0374724	0.624682	
1223	17	19579	-0.01656	0.0026	0.25	9.74703e-12	-9.57066e-09	-1.31116e-09	-5.16369e-10	-5.1539e-10	1.71959e-09	9.87599e-11	-3.82493e-11	-7.09054e-10	-7.97099e-05	7.83168e-05	0.361114	0.00797676	-0.00308937	-0.0572698	0.374708	
1223	18	19705	-0.01334	0.0026	0.25	8.07225e-12	-9.56098e-09	-1.31464e-09	-5.23868e-10	-5.18121e-10	1.7334e-09	1.41152e-10	-4.06458e-11	-1.06534e-09	-0.00085806	7.03449e-05	0.363777	0.0114007	-0.00328293	-0.0860471	0.393596	
1223	25	19707	-0.01495	0.0026	0.25	8.91266e-12	-9.56573e-09	-1.31277e-09	-5.20119e-10	-5.16668e-10	1.72601e-09	1.00393e-10	-3.86816e-11	-8.87247e-10	-0.000517583	3.97363e-05	0.362318	0.00810866	-0.00312429	-0.0716623	0.383248	
1224	9	19579	-0.01656	0.0026	0.25	9.74703e-12	-9.57066e-09	-1.31116e-09	-5.16369e-10	-5.1539e-10	1.71965e-09	9.87599e-11	-3.45295e-11	-7.13338e-10	-7.30443e-05	8.49824e-05	0.36113	0.00797676	-0.00278892	-0.0576158	0.374868	
1224	11	19705	-0.01334	0.0026	0.25	8.07225e-12	-9.56098e-09	-1.31464e-09	-5.23868e-10	-5.18121e-10	1.73364e-09	1.41152e-10	-3.70817e-11	-1.06801e-09	-0.000829224	9.91804e-05	0.363845	0.0114007	-0.00299506	-0.0862627	0.393766	
1224	20	19707	-0.01495	0.0026	0.25	8.91266e-12	-9.56573e-09	-1.31277e-09	-8.93356e-10	-8.89906e-10	2.97014e-09	1.00393e-10	-3.40757e-11	-7.7613e-10	-0.000516717	4.05081e-05	0.623586	0.00810865	-0.00275226	-0.0626874	0.633102	
1255	17	19705	-0.01334	0.0026	0.25	8.07225e-12	-9.56098e-09	-1.31464e-09	-5.23716e-10	-5.18121e-10	1.7334e-09	1.46721e-10	-4.06458e-11	-1.066e-09	-0.000814892	8.88455e-05	0.363796	0.0118506	-0.00328293	-0.0860998	0.39367	
1255	18	19831	-0.01012	0.0026	0.25	6.36861e-12	-9.55236e-09	-1.31912e-09	-5.34445e-10	-5.20539e-10	1.75092e-09	1.89159e-10	-6.33523e-11	-1.42076e-09	-0.0020174	0.000228932	0.367158	0.0152782	-0.00511692	-0.114754	0.418238	
1255	25	19833	-0.01173	0.0026	0.25	7.22475e-12	-9.5565e-09	-1.31675e-09	-5.2908e-10	-5.19565e-10	1.74173e-09	1.40555e-10	-4.62308e-11	-1.24341e-09	-0.00149662	4.04366e-05	0.365327	0.0113525	-0.00373402	-0.100429	0.40512	
1256	9	19705	-0.01334	0.0026	0.25	8.07225e-12	-9.56098e-09	-1.31464e-09	-5.23716e-10	-5.18121e-10	1.73364e-09	1.46721e-10	-3.70817e-11	-1.06867e-09	-0.000786056	0.000117681	0.363863	0.0118506	-0.00299506	-0.0863153	0.393841	
1256	11	19831	-0.01012	0.0026	0.25	6.36861e-12	-9.55236e-09	-1.31912e-09	-5.34445e-10	-5.20539e-10	1.75197e-09	1.89159e-10	-6.00718e-11	-1.42244e-09	-0.00189097	0.000355368	0.367453	0.0152782	-0.00485195	-0.114889	0.418488	
1256	20	19833	-0.01173	0.0026	0.25	7.22475e-12	-9.5565e-09	-1.31675e-09	-9.02317e-10	-8.92803e-10	2.98589e-09	1.40554e-10	-4.06669e-11	-1.08785e-09	-0.00149292	4.40658e-05	0.626602	0.0113524	-0.00328463	-0.0878651	0.645101	
1287	17	19831	-0.01012	0.0026	0.25	6.36861e-12	-9.55236e-09	-1.31912e-09	-5.2705e-10	-5.20539e-10	1.75092e-09	1.94621e-10	-6.33523e-11	-1.43244e-09	7.29977e-05	0.00112482	0.368053	0.0157194	-0.00511692	-0.115697	0.419064	
1287	18	10718	-0.0069	0.0026	0.25	4.59565e-12	-9.5455e-09	-1.3246e-09	-5.74168e-10	-4.95917e-10	1.77101e-09	2.36616e-10	-2.52019e-10	-1.74934e-09	-0.00783084	0.00480975	0.371005	0.0191113	-0.0203554	-0.141293	0.443181	
1287	25	19943	-0.00851	0.0026	0.25	5.5011e-12	-9.54865e-09	-1.32175e-09	-5.50609e-10	-5.15873e-10	1.76082e-09	1.80573e-10	-1.10068e-10	-1.59091e-09	-0.0048233	0.000788006	0.368561	0.0145847	-0.00889014	-0.128496	0.430908	
1288	9	19831	-0.01012	0.0026	0.25	6.36861e-12	-9.55236e-09	-1.31912e-09	-5.2705e-10	-5.20539e-10	1.75197e-09	1.94621e-10	-6.00718e-11	-1.43412e-09	0.000199434	0.00125125	0.368349	0.0157194	-0.00485195	-0.115833	0.419314	
1288	11	10718	-0.0069	0.0026	0.25	4.59565e-12	-9.5455e-09	-1.3246e-09	-5.74168e-10	-4.95917e-10	1.77546e-09	2.36616e-10	-2.49074e-10	-1.75042e-09	-0.00729102	0.00534958	0.372265	0.0191113	-0.0201175	-0.14138	0.443826	
1288	20	19943	-0.00851	0.0026	0.25	5.5011e-12	-9.54865e-09	-1.32175e-09	-9.23854e-10	-8.89105e-10	3.00508e-09	1.80565e-10	-9.65041e-11	-1.39196e-09	-0.00480825	0.000805043	0.629865	0.0145841	-0.00779456	-0.112427	0.659145	
1319	17	11987	0.0069	0.0026	0.25	-4.57181e-12	-9.54552e-09	-1.3246e-09	-5.95394e-10	-4.96e-10	1.77101e-09	-2.0379e-10	-2.51979e-10	1.76856e-09	-0.0138411	0.00221489	0.368424	-0.01646	-0.0203522	0.142845	0.444418	
1319	18	20020	0.00414	0.0026	0.25	-2.81362e-12	-9.54184e-09	-1.32941e-09	-6.78655e-10	-4.3246e-10	1.78707e-09	-8.87064e-11	-8.7374e-10	1.57742e-09	-0.0277351	0.012035	0.370574	-0.00716475	-0.0705713	0.127407	0.43947	
1319	25	20022	0.00552	0.0026	0.25	-3.72144e-12	-9.54339e-09	-1.32708e-09	-6.37025e-10	-4.55716e-10	1.77945e-09	-1.61594e-10	-5.27343e-10	1.67299e-09	-0.0197063	0.00958201	0.370648	-0.0130518	-0.0425931	0.135126	0.437639	
1320	9	11987	0.0069	0.0026	0.25	-4.57181e-12	-9.54552e-09	-1.3246e-09	-5.95394e-10	-4.96e-10	1.77546e-09	-2.0379e-10	-2.49035e-10	1.76963e-09	-0.0133014	0.00275466	0.369683	-0.01646	-0.0201143	0.142932	0.445063	
1320	11	20020	0.00414	0.0026	0.25	-2.81362e-12	-9.54184e-09	-1.32941e-09	-6.78655e-10	-4.3246e-10	1.79753e-09	-8.87064e-11	-8.70595e-10	1.57801e-09	-0.026467	0.013303	0.373532	-0.00716475	-0.0703173	0.127455	0.440769	
1320	20	20022	0.00552	0.0026	0.25	-3.72144e-12	-9.54339e-09	-1.32708e-09	-1.01026e-09	-8.2896e-10	3.02403e-09	-1.61557e-10	-4.61611e-10	1.46382e-09	-0.0196521	0.00963502	0.632041	-0.0130488	-0.037284	0.118232	0.659117	
1351	17	20020	0.00414	0.0026	0.25	-2.81362e-12	-9.54184e-09	-1.32941e-09	-6.70088e-10	-4.3246e-10	1.78707e-09	-6.90184e-11	-8.7374e-10	1.57592e-09	-0.0253131	0.0130729	0.371612	-0.00557456	-0.0705713	0.127286	0.439234	
1351	18	20146	0.00138	0.0026	0.25	-9.3767e-13	-9.54029e-09	-1.33258e-09	-6.89297e-10	-4.6869e-10	1.797e-09	2.67157e-11	-1.37632e-09	6.52381e-10	-0.0339288	0.0017077	0.367704	0.0021578	-0.111165	0.0526923	0.424269	
1351	25	20148	0.00276	0.0026	0.25	-1.88227e-12	-9.54084e-09	-1.33133e-09	-6.79692e-10	-4.49135e-10	1.7931e-09	-3.52654e-11	-1.17572e-09	1.11415e-09	-0.0293177	0.00792606	0.370133	-0.00284836	-0.0949624	0.0899893	0.428088	
1352	9	20020	0.00414	0.0026	0.25	-2.81362e-12	-9.54184e-09	-1.32941e-09	-6.70088e-10	-4.3246e-10	1.79753e-09	-6.90184e-11	-8.70595e-10	1.57651e-09	-0.0240451	0.014341	0.37457	-0.00557456	-0.0703173	0.127333	0.440534	
1352	11	20146	0.00138	0.0026	0.25	-9.3767e-13	-9.54029e-09	-1.33258e-09	-6.89297e-10	-4.6869e-10	1.81265e-09	2.67157e-11	-1.37282e-09	6.5258e-10	-0.0320329	0.0036036	0.372128	0.0021578	-0.110881	0.0527084	0.426237	
1352	20	20148	0.00276	0.0026	0.25	-1.88227e-12	-9.54084e-09	-1.33133e-09	-1.05291e-09	-8.22379e-10	3.03807e-09	-3.52793e-11	-1.02897e-09	9.7486e-10	-0.0292101	0.00802938	0.63164	-0.00284948	-0.083109	0.0787387	0.654926	
1383	17	20146	0.00138	0.0026	0.25	-9.3767e-13	-9.54029e-09	-1.33258e-09	-6.89431e-10	-4.6869e-10	1.797e-09	4.45685e-12	-1.37632e-09	6.15648e-10	-0.0339668	0.00169139	0.367688	0.000359977	-0.111165	0.0497254	0.423179	
1383	18	20272	-0.00138	0.0026	0.25	9.61993e-13	-9.54029e-09	-1.33258e-09	-6.87136e-10	-4.69887e-10	1.797e-09	-2.17024e-12	-1.37591e-09	-6.15585e-10	-0.033463	0.00163105	0.367821	-0.000175289	-0.111132	-0.0497203	0.423294	
1383	25	20274	0	0.0026	0.25	1.29533e-14	-9.54012e-09	-1.33302e-09	-6.88284e-10	-4.76268e-10	1.79836e-09	8.53863e-13	-1.4432e-09	3.20192e-14	-0.0343961	-0.000147354	0.367292	6.89659e-05	-0.116567	2.58617e-06	0.419954	
1384	9	20146	0.00138	0.0026	0.25	-9.3767e-13	-9.54029e-09	-1.33258e-09	-6.89431e-10	-4.6869e-10	1.81265e-09	4.45685e-12	-1.37282e-09	6.15847e-10	-0.0320709	0.0035873	0.372112	0.000359977	-0.110881	0.0497415	0.425151	
1384	11	20272	-0.00138	0.0026	0.25	9.61993e-13	-9.54029e-09	-1.33258e-09	-6.87136e-10	-4.69887e-10	1.81265e-09	-2.17024e-12	-1.37241e-09	-6.15783e-10	-0.0315672	0.00352687	0.372245	-0.000175289	-0.110848	-0.0497363	0.425267	
1384	20	20274	0	0.0026	0.25	1.29533e-14	-9.54012e-09	-1.33302e-09	-1.06153e-09	-8.49499e-10	3.04351e-09	8.56719e-13	-1.26303e-09	2.8426e-14	-0.0342743	-2.29244e-05	0.628847	6.91965e-05	-0.102014	2.29594e-06	0.65367	
1415	17	20272	-0.00138	0.0026	0.25	9.61993e-13	-9.54029e-09	-1.33258e-09	-6.89436e-10	-4.69887e-10	1.797e-09	-2.53617e-11	-1.37591e-09	-6.52512e-10	-0.0341132	0.00135241	0.367542	-0.00204845	-0.111132	-0.0527029	0.424405	
1415	18	20398	-0.00414	0.0026	0.25	2.83673e-12	-9.54183e-09	-1.32941e-09	-6.69068e-10	-4.32305e-10	1.78707e-09	6.83734e-11	-8.73831e-10	-1.5756e-09	-0.025006	0.0132404	0.371754	0.00552247	-0.0705787	-0.12726	0.439186	
1415	25	20400	-0.00276	0.0026	0.25	1.90639e-12	-9.54083e-09	-1.33133e-09	-6.79252e-10	-4.50108e-10	1.7931e-09	3.46846e-11	-1.17569e-09	-1.11406e-09	-0.0293112	0.00770435	0.370068	0.00280145	-0.09496	-0.0899816	0.428204	
1416	9	20272	-0.00138	0.0026	0.25	9.61993e-13	-9.54029e-09	-1.33258e-09	-6.89436e-10	-4.69887e-10	1.81265e-09	-2.53617e-11	-1.37241e-09	-6.52711e-10	-0.0322173	0.00324824	0.371966	-0.00204845	-0.110848	-0.0527189	0.426373	
1416	11	20398	-0.00414	0.0026	0.25	2.83673e-12	-9.54183e-09	-1.32941e-09	-6.69068e-10	-4.32305e-10	1.79753e-09	6.83734e-11	-8.70685e-10	-1.57619e-09	-0.023738	0.0145083	0.374713	0.00552247	-0.0703246	-0.127307	0.440486	
1416	20	20400	-0.00276	0.0026	0.25	1.90639e-12	-9.54083e-09	-1.33133e-09	-1.05247e-09	-8.23357e-10	3.03807e-09	3.46986e-11	-1.02894e-09	-9.74776e-10	-0.0292039	0.00780619	0.631575	0.00280258	-0.0831069	-0.0787319	0.655066	
1447	17	20398	-0.00414	0.0026	0.25	2.83673e-12	-9.54183e-09	-1.32941e-09	-6.78945e-10	-4.32305e-10	1.78707e-09	8.69892e-11	-8.73831e-10	-1.57731e-09	-0.027798	0.0120438	0.370558	0.00702605	-0.0705787	-0.127398	0.439441	
1447	18	10718	-0.0069	0.0026	0.25	4.59565e-12	-9.5455e-09	-1.3246e-09	-5.95637e-10	-4.95917e-10	1.77101e-09	2.03879e-10	-2.52019e-10	-1.76852e-09	-0.0138999	0.00220872	0.368404	0.0164672	-0.0203554	-0.142842	0.444406	
1447	25	20510	-0.00552	0.0026	0.25	3.74493e-12	-9.54337e-09	-1.32708e-09	-6.37291e-10	-4.55277e-10	1.77945e-09	1.60963e-10	-5.2746e-10	-1.67292e-09	-0.0197284	0.00967377	0.370669	0.0130009	-0.0426025	-0.13512	0.437577	
1448	9	20398	-0.00414	0.0026	0.25	2.83673e-12	-9.54183e-09	-1.32941e-09	-6.78945e-10	-4.32305e-10	1.79753e-09	8.69892e-11	-8.70685e-10	-1.57789e-09	-0.02653	0.0133118	0.373516	0.00702605	-0.0703246	-0.127445	0.440741	
1448	11	10718	-0.0069	0.0026	0.25	4.59565e-12	-9.5455e-09	-1.3246e-09	-5.95637e-10	-4.95917e-10	1.77546e-09	2.03879e-10	-2.49074e-10	-1.7696e-09	-0.0133601	0.00274854	0.369664	0.0164672	-0.0201175	-0.142929	0.445051	
1448	20	20510	-0.00552	0.0026	0.25	3.74493e-12	-9.54337e-09	-1.32708e-09	-1.01053e-09	-8.28519e-10	3.02403e-09	1.60922e-10	-4.61714e-10	-1.46375e-09	-0.0196742	0.00972741	0.632062	0.0129976	-0.0372923	-0.118226	0.659048	
1479	16	20587	0.01978	0.0026	0.25	-1.13789e-11	-9.58092e-09	-1.3087e-09	-5.11957e-10	-5.13057e-10	1.70977e-09	-4.52815e-11	-4.03585e-11	3.5202e-10	0.000259834	8.22309e-05	0.359154	-0.00365735	-0.00325973	0.0284324	0.362532	
1479	19	13193	0.023	0.0026	0.25	-1.30258e-11	-9.59136e-09	-1.30725e-09	-5.10994e-10	-5.1103e-10	1.70397e-09	-2.80682e-12	-6.0396e-11	-5.43511e-12	7.52537e-05	6.94789e-05	0.357877	-0.000226705	-0.00487814	-0.00043899	0.357909	
1479	25	20589	0.02139	0.0026	0.25	-1.22027e-11	-9.58612e-09	-1.30785e-09	-5.11476e-10	-5.11962e-10	1.70636e-09	-2.01155e-11	-4.52862e-11	1.73416e-10	0.000116073	3.74902e-05	0.358383	-0.00162471	-0.00365773	0.0140066	0.359232	
1480	8	20587	0.01978	0.0026	0.25	-1.13789e-11	-9.58092e-09	-1.3087e-09	-5.11957e-10	-5.13057e-10	1.70978e-09	-4.52815e-11	-3.67243e-11	3.58892e-10	0.000261252	8.36494e-05	0.359157	-0.00365735	-0.0029662	0.0289874	0.362658	
1480	13	13193	0.023	0.0026	0.25	-1.30258e-11	-9.59136e-09	-1.30725e-09	-5.10994e-10	-5.1103e-10	1.70398e-09	-2.80682e-12	-5.75172e-11	5.59469e-12	7.59469e-05	7.01721e-05	0.357879	-0.000226705	-0.00464562	0.000451879	0.3579	
1480	20	20589	0.02139	0.0026	0.25	-1.22027e-11	-9.58612e-09	-1.30785e-09	-8.84713e-10	-8.852e-10	2.95049e-09	-2.01154e-11	-3.98374e-11	1.51195e-10	0.000115937	3.73163e-05	0.619648	-0.0016247	-0.00321764	0.0122119	0.620004	
1511	16	20713	0.01656	0.0026	0.25	-9.72326e-12	-9.5707e-09	-1.31116e-09	-5.1635e-10	-5.15391e-10	1.71959e-09	-9.31944e-11	-3.82491e-11	7.08884e-10	-7.43082e-05	8.06352e-05	0.361117	-0.00752724	-0.00308935	0.057256	0.374674	
1511	19	20587	0.01978	0.0026	0.25	-1.13789e-11	-9.58092e-09	-1.3087e-09	-5.11973e-10	-5.13057e-10	1.70977e-09	-5.08285e-11	-4.03585e-11	3.52182e-10	0.000255226	8.02563e-05	0.359152	-0.00410538	-0.00325973	0.0284455	0.36255	
1511	25	20715	0.01817	0.0026	0.25	-1.05528e-11	-9.57577e-09	-1.3098e-09	-5.14162e-10	-5.14144e-10	1.71418e-09	-6.02734e-11	-3.86165e-11	5.30609e-10	3.91857e-05	4.20402e-05	0.360002	-0.00486823	-0.00311903	0.0428569	0.36767	
1512	8	20713	0.01656	0.0026	0.25	-9.72326e-12	-9.5707e-09	-1.31116e-09	-5.1635e-10	-5.15391e-10	1.71965e-09	-9.31944e-11	-3.45294e-11	7.13168e-10	-6.76432e-05	8.73002e-05	0.361132	-0.00752724	-0.00278891	0.057602	0.374834	
1512	13	20587	0.01978	0.0026	0.25	-1.13789e-11	-9.58092e-09	-1.3087e-09	-5.11973e-10	-5.13057e-10	1.70978e-09	-5.08285e-11	-3.67243e-11	3.59054e-10	0.000256645	8.16747e-05	0.359155	-0.00410538	-0.0029662	0.0290005	0.362676	
1512	20	20715	0.01817	0.0026	0.25	-1.05528e-11	-9.57577e-09	-1.3098e-09	-8.87398e-10	-8.87382e-10	2.9583e-09	-6.02734e-11	-3.40227e-11	4.63944e-10	3.95421e-05	4.22295e-05	0.621268	-0.00486823	-0.00274798	0.0374724	0.624682	
1543	16	20839	0.01334	0.0026	0.25	-8.04848e-12	-9.56102e-09	-1.31464e-09	-5.23869e-10	-5.18121e-10	1.7334e-09	-1.41151e-10	-4.06451e-11	1.06534e-09	-0.000858108	7.0404e-05	0.363778	-0.0114007	-0.00328288	0.0860471	0.393596	
1543	19	20713	0.01656	0.0026	0.25	-9.72326e-12	-9.5707e-09	-1.31116e-09	-5.16369e-10	-5.15391e-10	1.71959e-09	-9.87598e-11	-3.82491e-11	7.09054e-10	-7.96884e-05	7.83295e-05	0.361114	-0.00797675	-0.00308935	0.0572698	0.374708	
1543	25	20841	0.01495	0.0026	0.25	-8.88889e-12	-9.56576e-09	-1.31277e-09	-5.20119e-10	-5.16669e-10	1.72601e-09	-1.00393e-10	-3.86813e-11	8.87247e-10	-0.000517608	3.97466e-05	0.362318	-0.00810865	-0.00312426	0.0716623	0.383248	
1544	8	20839	0.01334	0.0026	0.25	-8.04848e-12	-9.56102e-09	-1.31464e-09	-5.23869e-10	-5.18121e-10	1.73364e-09	-1.41151e-10	-3.7081e-11	1.06801e-09	-0.000829276	9.92367e-05	0.363845	-0.0114007	-0.002995	0.0862627	0.393766	
1544	13	20713	0.01656	0.0026	0.25	-9.72326e-12	-9.5707e-09	-1.31116e-09	-5.16369e-10	-5.15391e-10	1.71965e-09	-9.87598e-11	-3.45294e-11	7.13338e-10	-7.30234e-05	8.49944e-05	0.36113	-0.00797675	-0.00278891	0.0576158	0.374869	
1544	20	20841	0.01495	0.0026	0.25	-8.88889e-12	-9.56576e-09	-1.31277e-09	-8.93356e-10	-8.89907e-10	2.97014e-09	-1.00393e-10	-3.40754e-11	7.7613e-10	-0.000516742	4.05184e-05	0.623586	-0.00810864	-0.00275224	0.0626874	0.633102	
1575	16	20965	0.01012	0.0026	0.25	-6.34483e-12	-9.55238e-09	-1.31912e-09	-5.34452e-10	-5.20535e-10	1.75093e-09	-1.89157e-10	-6.33475e-11	1.42076e-09	-0.00201897	0.000229089	0.367157	-0.015278	-0.00511652	0.114754	0.418238	
1575	19	20839	0.01334	0.0026	0.25	-8.04848e-12	-9.56102e-09	-1.31464e-09	-5.23715e-10	-5.18121e-10	1.7334e-09	-1.46722e-10	-4.06451e-11	1.066e-09	-0.00081466	8.90246e-05	0.363796	-0.0118506	-0.00328288	0.0860998	0.393671	
1575	25	20967	0.01173	0.0026	0.25	-7.20098e-12	-9.55653e-09	-1.31675e-09	-5.29084e-10	-5.19564e-10	1.74173e-09	-1.40554e-10	-4.62291e-11	1.24341e-09	-0.00149731	4.05516e-05	0.365327	-0.0113524	-0.00373388	0.100429	0.40512	
1576	8	20965	0.01012	0.0026	0.25	-6.34483e-12	-9.55238e-09	-1.31912e-09	-5.34452e-10	-5.20535e-10	1.75197e-09	-1.89157e-10	-6.00669e-11	1.42244e-09	-0.00189255	0.000355513	0.367452	-0.015278	-0.00485156	0.114889	0.418488	
1576	13	20839	0.01334	0.0026	0.25	-8.04848e-12	-9.56102e-09	-1.31464e-09	-5.23715e-10	-5.18121e-10	1.73364e-09	-1.46722e-10	-3.7081e-11	1.06867e-09	-0.000785828	0.000117857	0.363864	-0.0118506	-0.002995	0.0863153	0.393841	
1576	20	20967	0.01173	0.0026	0.25	-7.20098e-12	-9.55653e-09	-1.31675e-09	-9.02321e-10	-8.92801e-10	2.98589e-09	-1.40553e-10	-4.06654e-11	1.08785e-09	-0.00149362	4.41809e-05	0.626602	-0.0113524	-0.00328451	0.0878651	0.645101	
1607	16	11987	0.0069	0.0026	0.25	-4.57181e-12	-9.54552e-09	-1.3246e-09	-5.74179e-10	-4.96e-10	1.77101e-09	-2.36582e-10	-2.51979e-10	1.74934e-09	-0.00784378	0.00478518	0.370994	-0.0191085	-0.0203522	0.141293	0.44319	
1607	19	20965	0.01012	0.0026	0.25	-6.34483e-12	-9.55238e-09	-1.31912e-09	-5.27077e-10	-5.20535e-10	1.75093e-09	-1.94631e-10	-6.33475e-11	1.43245e-09	6.58972e-05	0.0011226	0.368051	-0.0157202	-0.00511652	0.115698	0.419064	
1607	25	21077	0.00851	0.0026	0.25	-5.47728e-12	-9.54867e-09	-1.32175e-09	-5.50628e-10	-5.15873e-10	1.76082e-09	-1.80565e-10	-1.10055e-10	1.59091e-09	-0.00482857	0.000785705	0.368559	-0.0145841	-0.00888905	0.128496	0.430908	
1608	8	11987	0.0069	0.0026	0.25	-4.57181e-12	-9.54552e-09	-1.3246e-09	-5.74179e-10	-4.96e-10	1.77546e-09	-2.36582e-10	-2.49035e-10	1.75042e-09	-0.00730401	0.00532496	0.372254	-0.0191085	-0.0201143	0.14138	0.443836	
1608	13	20965	0.01012	0.0026	0.25	-6.34483e-12	-9.55238e-09	-1.31912e-09	-5.27077e-10	-5.20535e-10	1.75197e-09	-1.94631e-10	-6.00669e-11	1.43412e-09	0.000192322	0.00124903	0.368346	-0.0157202	-0.00485156	0.115833	0.419314	
1608	20	21077	0.00851	0.0026	0.25	-5.47728e-12	-9.54867e-09	-1.32175e-09	-9.23873e-10	-8.89105e-10	3.00508e-09	-1.80557e-10	-9.64923e-11	1.39196e-09	-0.00481353	0.00080272	0.629863	-0.0145834	-0.00779361	0.112427	0.659145	
