%element	local	global	x	y	z	dx	dy	dz	e11	e22	e33	e12	e23	e13	s11	s22	s33	s12	s23	s13	von
7	16	13279	-0.01978	0.0774	0.25	-1.13789e-11	-9.58092e-09	1.3087e-09	5.11957e-10	5.13056e-10	-1.70977e-09	4.52815e-11	-4.03585e-11	3.5202e-10	-0.000259834	-8.22308e-05	-0.359154	0.00365735	-0.00325973	0.0284324	0.362532	
7	19	2367	-0.023	0.0774	0.25	-1.30259e-11	-9.59136e-09	1.30725e-09	5.10994e-10	5.1103e-10	-1.70397e-09	2.80682e-12	-6.0396e-11	-5.43511e-12	-7.52537e-05	-6.94789e-05	-0.357877	0.000226705	-0.00487814	-0.000438989	0.357909	
7	25	13281	-0.02139	0.0774	0.25	-1.22028e-11	-9.58612e-09	1.30785e-09	5.11476e-10	5.11962e-10	-1.70636e-09	2.01155e-11	-4.52862e-11	1.73415e-10	-0.000116073	-3.74902e-05	-0.358382	0.00162471	-0.00365773	0.0140066	0.359232	
8	8	13279	-0.01978	0.0774	0.25	-1.13789e-11	-9.58092e-09	1.3087e-09	5.11957e-10	5.13056e-10	-1.70978e-09	4.52815e-11	-3.67243e-11	3.58891e-10	-0.000261252	-8.36493e-05	-0.359157	0.00365735	-0.0029662	0.0289874	0.362658	
8	13	2367	-0.023	0.0774	0.25	-1.30259e-11	-9.59136e-09	1.30725e-09	5.10994e-10	5.1103e-10	-1.70398e-09	2.80682e-12	-5.75172e-11	5.59469e-12	-7.59468e-05	-7.0172e-05	-0.357879	0.000226705	-0.00464562	0.000451879	0.3579	
8	20	13281	-0.02139	0.0774	0.25	-1.22028e-11	-9.58612e-09	1.30785e-09	8.84713e-10	8.852e-10	-2.95049e-09	2.01154e-11	-3.98374e-11	1.51195e-10	-0.000115937	-3.73163e-05	-0.619648	0.0016247	-0.00321764	0.0122119	0.620003	
39	16	13405	-0.01656	0.0774	0.25	-9.72333e-12	-9.5707e-09	1.31116e-09	5.1635e-10	5.15391e-10	-1.71959e-09	9.31944e-11	-3.82491e-11	7.08884e-10	7.4308e-05	-8.06351e-05	-0.361117	0.00752724	-0.00308935	0.057256	0.374674	
39	19	13279	-0.01978	0.0774	0.25	-1.13789e-11	-9.58092e-09	1.3087e-09	5.11973e-10	5.13056e-10	-1.70977e-09	5.08285e-11	-4.03585e-11	3.52182e-10	-0.000255226	-8.02562e-05	-0.359152	0.00410538	-0.00325973	0.0284455	0.36255	
39	25	13407	-0.01817	0.0774	0.25	-1.05529e-11	-9.57577e-09	1.3098e-09	5.14162e-10	5.14144e-10	-1.71418e-09	6.02734e-11	-3.86165e-11	5.30609e-10	-3.91858e-05	-4.20401e-05	-0.360002	0.00486823	-0.00311903	0.0428569	0.36767	
40	8	13405	-0.01656	0.0774	0.25	-9.72333e-12	-9.5707e-09	1.31116e-09	5.1635e-10	5.15391e-10	-1.71965e-09	9.31944e-11	-3.45294e-11	7.13168e-10	6.76429e-05	-8.73003e-05	-0.361132	0.00752724	-0.00278891	0.057602	0.374834	
40	13	13279	-0.01978	0.0774	0.25	-1.13789e-11	-9.58092e-09	1.3087e-09	5.11973e-10	5.13056e-10	-1.70978e-09	5.08285e-11	-3.67243e-11	3.59053e-10	-0.000256645	-8.16747e-05	-0.359155	0.00410538	-0.0029662	0.0290005	0.362676	
40	20	13407	-0.01817	0.0774	0.25	-1.05529e-11	-9.57577e-09	1.3098e-09	8.87398e-10	8.87381e-10	-2.9583e-09	6.02734e-11	-3.40227e-11	4.63943e-10	-3.95422e-05	-4.22294e-05	-0.621268	0.00486823	-0.00274798	0.0374723	0.624682	
71	16	13531	-0.01334	0.0774	0.25	-8.04854e-12	-9.56102e-09	1.31463e-09	5.23869e-10	5.18121e-10	-1.7334e-09	1.41151e-10	-4.06452e-11	1.06534e-09	0.000858108	-7.04044e-05	-0.363778	0.0114007	-0.00328289	0.086047	0.393596	
71	19	13405	-0.01656	0.0774	0.25	-9.72333e-12	-9.5707e-09	1.31116e-09	5.16369e-10	5.15391e-10	-1.71959e-09	9.87598e-11	-3.82491e-11	7.09054e-10	7.9688e-05	-7.83294e-05	-0.361114	0.00797675	-0.00308935	0.0572698	0.374708	
71	25	13533	-0.01495	0.0774	0.25	-8.88895e-12	-9.56576e-09	1.31277e-09	5.20119e-10	5.16669e-10	-1.72601e-09	1.00393e-10	-3.86814e-11	8.87247e-10	0.000517607	-3.97465e-05	-0.362318	0.00810865	-0.00312426	0.0716623	0.383248	
72	8	13531	-0.01334	0.0774	0.25	-8.04854e-12	-9.56102e-09	1.31463e-09	5.23869e-10	5.18121e-10	-1.73364e-09	1.41151e-10	-3.70811e-11	1.06801e-09	0.000829274	-9.92379e-05	-0.363845	0.0114007	-0.00299501	0.0862626	0.393766	
72	13	13405	-0.01656	0.0774	0.25	-9.72333e-12	-9.5707e-09	1.31116e-09	5.16369e-10	5.15391e-10	-1.71965e-09	9.87598e-11	-3.45294e-11	7.13338e-10	7.30228e-05	-8.49946e-05	-0.36113	0.00797675	-0.00278891	0.0576157	0.374868	
72	20	13533	-0.01495	0.0774	0.25	-8.88895e-12	-9.56576e-09	1.31277e-09	8.93356e-10	8.89906e-10	-2.97014e-09	1.00393e-10	-3.40754e-11	7.7613e-10	0.000516741	-4.05183e-05	-0.623586	0.00810864	-0.00275225	0.0626874	0.633102	
103	16	13657	-0.01012	0.0774	0.25	-6.3449e-12	-9.55238e-09	1.31912e-09	5.34452e-10	5.20535e-10	-1.75092e-09	1.89157e-10	-6.33484e-11	1.42076e-09	0.00201899	-0.000229105	-0.367157	0.015278	-0.0051166	0.114754	0.418238	
103	19	13531	-0.01334	0.0774	0.25	-8.04854e-12	-9.56102e-09	1.31463e-09	5.23715e-10	5.18121e-10	-1.7334e-09	1.46722e-10	-4.06452e-11	1.066e-09	0.000814652	-8.90284e-05	-0.363796	0.0118506	-0.00328289	0.0860997	0.39367	
103	25	13659	-0.01173	0.0774	0.25	-7.20104e-12	-9.55653e-09	1.31675e-09	5.29084e-10	5.19563e-10	-1.74173e-09	1.40554e-10	-4.62294e-11	1.24341e-09	0.00149731	-4.05541e-05	-0.365327	0.0113524	-0.00373391	0.100429	0.40512	
104	8	13657	-0.01012	0.0774	0.25	-6.3449e-12	-9.55238e-09	1.31912e-09	5.34452e-10	5.20535e-10	-1.75197e-09	1.89157e-10	-6.00679e-11	1.42244e-09	0.00189256	-0.000355533	-0.367452	0.015278	-0.00485164	0.114889	0.418488	
104	13	13531	-0.01334	0.0774	0.25	-8.04854e-12	-9.56102e-09	1.31463e-09	5.23715e-10	5.18121e-10	-1.73364e-09	1.46722e-10	-3.70811e-11	1.06867e-09	0.000785818	-0.000117862	-0.363863	0.0118506	-0.00299501	0.0863153	0.393841	
104	20	13659	-0.01173	0.0774	0.25	-7.20104e-12	-9.55653e-09	1.31675e-09	9.0232e-10	8.92801e-10	-2.98589e-09	1.40553e-10	-4.06657e-11	1.08785e-09	0.00149363	-4.41835e-05	-0.626601	0.0113524	-0.00328454	0.087865	0.645101	
135	16	2997	-0.0069	0.0774	0.25	-4.57187e-12	-9.54552e-09	1.3246e-09	5.74181e-10	4.95999e-10	-1.77101e-09	2.36582e-10	-2.51988e-10	1.74933e-09	0.00784429	-0.00478515	-0.370994	0.0191085	-0.0203528	0.141292	0.44319	
135	19	13657	-0.01012	0.0774	0.25	-6.3449e-12	-9.55238e-09	1.31912e-09	5.27076e-10	5.20535e-10	-1.75092e-09	1.94631e-10	-6.33484e-11	1.43245e-09	-6.59452e-05	-0.00112265	-0.368051	0.0157202	-0.0051166	0.115698	0.419064	
135	25	13769	-0.00851	0.0774	0.25	-5.47734e-12	-9.54867e-09	1.32175e-09	5.50629e-10	5.15872e-10	-1.76082e-09	1.80565e-10	-1.10058e-10	1.5909e-09	0.00482879	-0.000785729	-0.368558	0.0145841	-0.00888928	0.128496	0.430908	
136	8	2997	-0.0069	0.0774	0.25	-4.57187e-12	-9.54552e-09	1.3246e-09	5.74181e-10	4.95999e-10	-1.77546e-09	2.36582e-10	-2.49043e-10	1.75041e-09	0.00730451	-0.00532493	-0.372253	0.0191085	-0.020115	0.141379	0.443835	
136	13	13657	-0.01012	0.0774	0.25	-6.3449e-12	-9.55238e-09	1.31912e-09	5.27076e-10	5.20535e-10	-1.75197e-09	1.94631e-10	-6.00679e-11	1.43412e-09	-0.000192373	-0.00124908	-0.368346	0.0157202	-0.00485164	0.115833	0.419314	
136	20	13769	-0.00851	0.0774	0.25	-5.47734e-12	-9.54867e-09	1.32175e-09	9.23873e-10	8.89104e-10	-3.00508e-09	1.80557e-10	-9.64948e-11	1.39196e-09	0.00481375	-0.000802743	-0.629863	0.0145834	-0.00779381	0.112427	0.659145	
167	16	13846	0.00414	0.0774	0.25	2.83668e-12	-9.54183e-09	1.32941e-09	6.78943e-10	4.32305e-10	-1.78706e-09	-8.6986e-11	-8.73828e-10	-1.5773e-09	0.0277978	-0.0120437	-0.370557	-0.00702579	-0.0705784	-0.127397	0.43944	
167	19	4203	0.0069	0.0774	0.25	4.5956e-12	-9.5455e-09	1.3246e-09	5.9564e-10	4.95916e-10	-1.77101e-09	-2.03877e-10	-2.52027e-10	-1.76851e-09	0.0139006	-0.00220862	-0.368404	-0.016467	-0.020356	-0.142841	0.444406	
167	25	13848	0.00552	0.0774	0.25	3.74488e-12	-9.54337e-09	1.32708e-09	6.37292e-10	4.55276e-10	-1.77945e-09	-1.60962e-10	-5.27466e-10	-1.67291e-09	0.0197285	-0.00967404	-0.370668	-0.0130008	-0.042603	-0.13512	0.437576	
168	8	13846	0.00414	0.0774	0.25	2.83668e-12	-9.54183e-09	1.32941e-09	6.78943e-10	4.32305e-10	-1.79753e-09	-8.6986e-11	-8.70681e-10	-1.57788e-09	0.0265298	-0.0133117	-0.373516	-0.00702579	-0.0703243	-0.127444	0.44074	
168	13	4203	0.0069	0.0774	0.25	4.5956e-12	-9.5455e-09	1.3246e-09	5.9564e-10	4.95916e-10	-1.77546e-09	-2.03877e-10	-2.49082e-10	-1.76959e-09	0.0133608	-0.00274845	-0.369664	-0.016467	-0.0201182	-0.142928	0.44505	
168	20	13848	0.00552	0.0774	0.25	3.74488e-12	-9.54337e-09	1.32708e-09	1.01053e-09	8.28517e-10	-3.02403e-09	-1.60921e-10	-4.61719e-10	-1.46374e-09	0.0196742	-0.00972769	-0.632062	-0.0129974	-0.0372927	-0.118225	0.659047	
199	16	13972	0.00138	0.0774	0.25	9.61937e-13	-9.54029e-09	1.33258e-09	6.89436e-10	4.69887e-10	-1.797e-09	2.53612e-11	-1.37591e-09	-6.52509e-10	0.0341132	-0.00135245	-0.367542	0.00204841	-0.111131	-0.0527027	0.424405	
199	19	13846	0.00414	0.0774	0.25	2.83668e-12	-9.54183e-09	1.32941e-09	6.6907e-10	4.32305e-10	-1.78706e-09	-6.83715e-11	-8.73828e-10	-1.57559e-09	0.0250066	-0.0132399	-0.371754	-0.00552232	-0.0705784	-0.127259	0.439185	
199	25	13974	0.00276	0.0774	0.25	1.90633e-12	-9.54083e-09	1.33133e-09	6.79253e-10	4.50108e-10	-1.7931e-09	-3.4684e-11	-1.17569e-09	-1.11405e-09	0.0293115	-0.00770412	-0.370068	-0.0028014	-0.0949594	-0.0899809	0.428203	
200	8	13972	0.00138	0.0774	0.25	9.61937e-13	-9.54029e-09	1.33258e-09	6.89436e-10	4.69887e-10	-1.81265e-09	2.53612e-11	-1.3724e-09	-6.52708e-10	0.0322174	-0.00324828	-0.371966	0.00204841	-0.110848	-0.0527187	0.426372	
200	13	13846	0.00414	0.0774	0.25	2.83668e-12	-9.54183e-09	1.32941e-09	6.6907e-10	4.32305e-10	-1.79753e-09	-6.83715e-11	-8.70681e-10	-1.57617e-09	0.0237386	-0.0145079	-0.374712	-0.00552232	-0.0703243	-0.127306	0.440485	
200	20	13974	0.00276	0.0774	0.25	1.90633e-12	-9.54083e-09	1.33133e-09	1.05247e-09	8.23357e-10	-3.03806e-09	-3.4698e-11	-1.02894e-09	-9.74768e-10	0.0292042	-0.00780596	-0.631574	-0.00280253	-0.0831064	-0.0787313	0.655066	
231	16	14098	-0.00138	0.0774	0.25	-9.37728e-13	-9.54029e-09	1.33258e-09	6.89432e-10	4.68689e-10	-1.797e-09	-4.45596e-12	-1.37632e-09	6.15642e-10	0.033967	-0.0016914	-0.367688	-0.000359904	-0.111164	0.0497249	0.423178	
231	19	13972	0.00138	0.0774	0.25	9.61937e-13	-9.54029e-09	1.33258e-09	6.87137e-10	4.69887e-10	-1.797e-09	2.16955e-12	-1.37591e-09	-6.15578e-10	0.0334633	-0.00163096	-0.367821	0.000175233	-0.111131	-0.0497198	0.423293	
231	25	14100	0	0.0774	0.25	1.28962e-14	-9.54012e-09	1.33302e-09	6.88285e-10	4.76267e-10	-1.79836e-09	-8.53985e-13	-1.4432e-09	3.18768e-14	0.0343963	0.000147262	-0.367292	-6.89757e-05	-0.116566	2.57467e-06	0.419954	
232	8	14098	-0.00138	0.0774	0.25	-9.37728e-13	-9.54029e-09	1.33258e-09	6.89432e-10	4.68689e-10	-1.81265e-09	-4.45596e-12	-1.37281e-09	6.1584e-10	0.0320711	-0.00358731	-0.372111	-0.000359904	-0.110881	0.0497409	0.42515	
232	13	13972	0.00138	0.0774	0.25	9.61937e-13	-9.54029e-09	1.33258e-09	6.87137e-10	4.69887e-10	-1.81265e-09	2.16955e-12	-1.3724e-09	-6.15777e-10	0.0315675	-0.00352679	-0.372244	0.000175233	-0.110848	-0.0497358	0.425266	
232	20	14100	0	0.0774	0.25	1.28962e-14	-9.54012e-09	1.33302e-09	1.06153e-09	8.49498e-10	-3.0435e-09	-8.56846e-13	-1.26302e-09	2.83005e-14	0.0342745	2.28278e-05	-0.628847	-6.92068e-05	-0.102013	2.28581e-06	0.653669	
263	16	14224	-0.00414	0.0774	0.25	-2.81368e-12	-9.54184e-09	1.32941e-09	6.7009e-10	4.3246e-10	-1.78706e-09	6.90167e-11	-8.73736e-10	1.57591e-09	0.0253137	-0.0130726	-0.371611	0.00557442	-0.070571	0.127285	0.439232	
263	19	14098	-0.00138	0.0774	0.25	-9.37728e-13	-9.54029e-09	1.33258e-09	6.89297e-10	4.68689e-10	-1.797e-09	-2.67155e-11	-1.37632e-09	6.52379e-10	0.0339288	-0.00170779	-0.367704	-0.00215779	-0.111164	0.0526921	0.424269	
263	25	14226	-0.00276	0.0774	0.25	-1.88233e-12	-9.54084e-09	1.33133e-09	6.79693e-10	4.49136e-10	-1.7931e-09	3.52648e-11	-1.17572e-09	1.11415e-09	0.0293181	-0.00792581	-0.370132	0.00284831	-0.0949619	0.0899886	0.428087	
264	8	14224	-0.00414	0.0774	0.25	-2.81368e-12	-9.54184e-09	1.32941e-09	6.7009e-10	4.3246e-10	-1.79753e-09	6.90167e-11	-8.70591e-10	1.57649e-09	0.0240457	-0.0143406	-0.37457	0.00557442	-0.0703169	0.127332	0.440533	
264	13	14098	-0.00138	0.0774	0.25	-9.37728e-13	-9.54029e-09	1.33258e-09	6.89297e-10	4.68689e-10	-1.81265e-09	-2.67155e-11	-1.37281e-09	6.52577e-10	0.0320329	-0.0036037	-0.372128	-0.00215779	-0.110881	0.0527082	0.426236	
264	20	14226	-0.00276	0.0774	0.25	-1.88233e-12	-9.54084e-09	1.33133e-09	1.05291e-09	8.22379e-10	-3.03807e-09	3.52787e-11	-1.02896e-09	9.74853e-10	0.0292104	-0.00802912	-0.631639	0.00284944	-0.0831086	0.0787381	0.654926	
295	16	2997	-0.0069	0.0774	0.25	-4.57187e-12	-9.54552e-09	1.3246e-09	5.95396e-10	4.95999e-10	-1.77101e-09	2.03787e-10	-2.51988e-10	1.76855e-09	0.0138418	-0.0022148	-0.368423	0.0164597	-0.0203528	0.142844	0.444417	
295	19	14224	-0.00414	0.0774	0.25	-2.81368e-12	-9.54184e-09	1.32941e-09	6.78654e-10	4.3246e-10	-1.78706e-09	8.87033e-11	-8.73736e-10	1.57741e-09	0.0277348	-0.0120349	-0.370574	0.0071645	-0.070571	0.127406	0.439469	
295	25	14336	-0.00552	0.0774	0.25	-3.7215e-12	-9.54339e-09	1.32708e-09	6.37025e-10	4.55715e-10	-1.77945e-09	1.61593e-10	-5.27349e-10	1.67299e-09	0.0197064	-0.00958227	-0.370647	0.0130517	-0.0425935	0.135126	0.437639	
296	8	2997	-0.0069	0.0774	0.25	-4.57187e-12	-9.54552e-09	1.3246e-09	5.95396e-10	4.95999e-10	-1.77546e-09	2.03787e-10	-2.49043e-10	1.76963e-09	0.013302	-0.00275459	-0.369683	0.0164597	-0.020115	0.142931	0.445062	
296	13	14224	-0.00414	0.0774	0.25	-2.81368e-12	-9.54184e-09	1.32941e-09	6.78654e-10	4.3246e-10	-1.79753e-09	8.87033e-11	-8.70591e-10	1.578e-09	0.0264668	-0.013303	-0.373532	0.0071645	-0.0703169	0.127454	0.440768	
296	20	14336	-0.00552	0.0774	0.25	-3.7215e-12	-9.54339e-09	1.32708e-09	1.01026e-09	8.28959e-10	-3.02403e-09	1.61556e-10	-4.61616e-10	1.46381e-09	0.0196522	-0.00963528	-0.632041	0.0130487	-0.0372844	0.118231	0.659116	
327	17	4842	0.023	0.0774	0.25	1.30495e-11	-9.5913e-09	1.30725e-09	5.10993e-10	5.11029e-10	-1.70397e-09	-2.80686e-12	-6.03925e-11	5.43513e-12	-7.52544e-05	-6.94793e-05	-0.357877	-0.000226708	-0.00487785	0.000438991	0.357908	
327	18	14413	0.01978	0.0774	0.25	1.14026e-11	-9.58087e-09	1.3087e-09	5.11956e-10	5.13055e-10	-1.70976e-09	-4.52816e-11	-4.03583e-11	-3.5202e-10	-0.000259835	-8.22307e-05	-0.359153	-0.00365736	-0.00325971	-0.0284324	0.362532	
327	25	14415	0.02139	0.0774	0.25	1.22264e-11	-9.58607e-09	1.30784e-09	5.11475e-10	5.11961e-10	-1.70636e-09	-2.01155e-11	-4.52851e-11	-1.73415e-10	-0.000116074	-3.74903e-05	-0.358382	-0.00162472	-0.00365764	-0.0140066	0.359231	
328	9	4842	0.023	0.0774	0.25	1.30495e-11	-9.5913e-09	1.30725e-09	5.10993e-10	5.11029e-10	-1.70397e-09	-2.80686e-12	-5.75136e-11	-5.59471e-12	-7.59469e-05	-7.01718e-05	-0.357878	-0.000226708	-0.00464533	-0.00045188	0.357899	
328	11	14413	0.01978	0.0774	0.25	1.14026e-11	-9.58087e-09	1.3087e-09	5.11956e-10	5.13055e-10	-1.70978e-09	-4.52816e-11	-3.6724e-11	-3.58892e-10	-0.000261253	-8.36492e-05	-0.359156	-0.00365736	-0.00296617	-0.0289874	0.362658	
328	20	14415	0.02139	0.0774	0.25	1.22264e-11	-9.58607e-09	1.30784e-09	8.84712e-10	8.85199e-10	-2.95048e-09	-2.01154e-11	-3.98368e-11	-1.51195e-10	-0.000115938	-3.73164e-05	-0.619647	-0.00162471	-0.00321759	-0.0122119	0.620002	
359	17	14413	0.01978	0.0774	0.25	1.14026e-11	-9.58087e-09	1.3087e-09	5.11972e-10	5.13055e-10	-1.70976e-09	-5.08286e-11	-4.03583e-11	-3.52182e-10	-0.000255228	-8.02562e-05	-0.359151	-0.00410539	-0.00325971	-0.0284455	0.362549	
359	18	14539	0.01656	0.0774	0.25	9.74698e-12	-9.57066e-09	1.31116e-09	5.16349e-10	5.1539e-10	-1.71959e-09	-9.31945e-11	-3.82493e-11	-7.08884e-10	7.43062e-05	-8.06324e-05	-0.361116	-0.00752725	-0.00308937	-0.057256	0.374673	
359	25	14541	0.01817	0.0774	0.25	1.05765e-11	-9.57572e-09	1.3098e-09	5.14161e-10	5.14143e-10	-1.71418e-09	-6.02735e-11	-3.86166e-11	-5.30609e-10	-3.91879e-05	-4.20399e-05	-0.360001	-0.00486824	-0.00311903	-0.0428569	0.36767	
360	9	14413	0.01978	0.0774	0.25	1.14026e-11	-9.58087e-09	1.3087e-09	5.11972e-10	5.13055e-10	-1.70978e-09	-5.08286e-11	-3.6724e-11	-3.59053e-10	-0.000256646	-8.16746e-05	-0.359154	-0.00410539	-0.00296617	-0.0290005	0.362675	
360	11	14539	0.01656	0.0774	0.25	9.74698e-12	-9.57066e-09	1.31116e-09	5.16349e-10	5.1539e-10	-1.71965e-09	-9.31945e-11	-3.45295e-11	-7.13168e-10	6.76405e-05	-8.72982e-05	-0.361132	-0.00752725	-0.00278892	-0.057602	0.374834	
360	20	14541	0.01817	0.0774	0.25	1.05765e-11	-9.57572e-09	1.3098e-09	8.87397e-10	8.8738e-10	-2.9583e-09	-6.02734e-11	-3.40227e-11	-4.63943e-10	-3.95443e-05	-4.22291e-05	-0.621267	-0.00486824	-0.00274799	-0.0374723	0.624682	
391	17	14539	0.01656	0.0774	0.25	9.74698e-12	-9.57066e-09	1.31116e-09	5.16368e-10	5.1539e-10	-1.71959e-09	-9.87599e-11	-3.82493e-11	-7.09054e-10	7.97095e-05	-7.83168e-05	-0.361114	-0.00797676	-0.00308937	-0.0572698	0.374707	
391	18	14665	0.01334	0.0774	0.25	8.0722e-12	-9.56098e-09	1.31463e-09	5.23868e-10	5.18121e-10	-1.7334e-09	-1.41152e-10	-4.06459e-11	-1.06534e-09	0.000858059	-7.03454e-05	-0.363777	-0.0114007	-0.00328294	-0.086047	0.393596	
391	25	14667	0.01495	0.0774	0.25	8.91261e-12	-9.56573e-09	1.31277e-09	5.20118e-10	5.16668e-10	-1.72601e-09	-1.00393e-10	-3.86817e-11	-8.87247e-10	0.000517583	-3.97362e-05	-0.362318	-0.00810866	-0.00312429	-0.0716623	0.383247	
392	9	14539	0.01656	0.0774	0.25	9.74698e-12	-9.57066e-09	1.31116e-09	5.16368e-10	5.1539e-10	-1.71965e-09	-9.87599e-11	-3.45295e-11	-7.13338e-10	7.30438e-05	-8.49825e-05	-0.361129	-0.00797676	-0.00278892	-0.0576158	0.374868	
392	11	14665	0.01334	0.0774	0.25	8.0722e-12	-9.56098e-09	1.31463e-09	5.23868e-10	5.18121e-10	-1.73364e-09	-1.41152e-10	-3.70818e-11	-1.06801e-09	0.000829223	-9.91817e-05	-0.363844	-0.0114007	-0.00299507	-0.0862626	0.393766	
392	20	14667	0.01495	0.0774	0.25	8.91261e-12	-9.56573e-09	1.31277e-09	8.93355e-10	8.89906e-10	-2.97014e-09	-1.00393e-10	-3.40757e-11	-7.7613e-10	0.000516716	-4.0508e-05	-0.623586	-0.00810865	-0.00275227	-0.0626874	0.633102	
423	17	14665	0.01334	0.0774	0.25	8.0722e-12	-9.56098e-09	1.31463e-09	5.23715e-10	5.18121e-10	-1.7334e-09	-1.46721e-10	-4.06459e-11	-1.066e-09	0.000814883	-8.88493e-05	-0.363796	-0.0118506	-0.00328294	-0.0860997	0.39367	
423	18	14791	0.01012	0.0774	0.25	6.36856e-12	-9.55236e-09	1.31912e-09	5.34444e-10	5.20538e-10	-1.75092e-09	-1.89159e-10	-6.33533e-11	-1.42076e-09	0.00201742	-0.000228948	-0.367157	-0.0152782	-0.005117	-0.114754	0.418238	
423	25	14793	0.01173	0.0774	0.25	7.2247e-12	-9.5565e-09	1.31675e-09	5.2908e-10	5.19565e-10	-1.74173e-09	-1.40555e-10	-4.62311e-11	-1.24341e-09	0.00149662	-4.04391e-05	-0.365327	-0.0113525	-0.00373405	-0.100429	0.40512	
424	9	14665	0.01334	0.0774	0.25	8.0722e-12	-9.56098e-09	1.31463e-09	5.23715e-10	5.18121e-10	-1.73364e-09	-1.46721e-10	-3.70818e-11	-1.06867e-09	0.000786047	-0.000117686	-0.363863	-0.0118506	-0.00299507	-0.0863153	0.39384	
424	11	14791	0.01012	0.0774	0.25	6.36856e-12	-9.55236e-09	1.31912e-09	5.34444e-10	5.20538e-10	-1.75197e-09	-1.89159e-10	-6.00728e-11	-1.42244e-09	0.00189098	-0.000355388	-0.367452	-0.0152782	-0.00485203	-0.114889	0.418488	
424	20	14793	0.01173	0.0774	0.25	7.2247e-12	-9.5565e-09	1.31675e-09	9.02317e-10	8.92802e-10	-2.98589e-09	-1.40554e-10	-4.06672e-11	-1.08785e-09	0.00149293	-4.40684e-05	-0.626601	-0.0113524	-0.00328466	-0.087865	0.645101	
455	17	14791	0.01012	0.0774	0.25	6.36856e-12	-9.55236e-09	1.31912e-09	5.2705e-10	5.20538e-10	-1.75092e-09	-1.94621e-10	-6.33533e-11	-1.43245e-09	-7.30472e-05	-0.00112486	-0.368053	-0.0157194	-0.005117	-0.115698	0.419064	
455	18	4203	0.0069	0.0774	0.25	4.5956e-12	-9.5455e-09	1.3246e-09	5.7417e-10	4.95916e-10	-1.77101e-09	-2.36616e-10	-2.52027e-10	-1.74934e-09	0.00783135	-0.00480972	-0.371005	-0.0191113	-0.020356	-0.141293	0.44318	
455	25	14903	0.00851	0.0774	0.25	5.50105e-12	-9.54865e-09	1.32175e-09	5.5061e-10	5.15872e-10	-1.76082e-09	-1.80573e-10	-1.10071e-10	-1.5909e-09	0.00482352	-0.00078803	-0.368561	-0.0145847	-0.00889036	-0.128496	0.430908	
456	9	14791	0.01012	0.0774	0.25	6.36856e-12	-9.55236e-09	1.31912e-09	5.2705e-10	5.20538e-10	-1.75197e-09	-1.94621e-10	-6.00728e-11	-1.43412e-09	-0.000199487	-0.0012513	-0.368348	-0.0157194	-0.00485203	-0.115833	0.419314	
456	11	4203	0.0069	0.0774	0.25	4.5956e-12	-9.5455e-09	1.3246e-09	5.7417e-10	4.95916e-10	-1.77546e-09	-2.36616e-10	-2.49082e-10	-1.75041e-09	0.00729151	-0.00534956	-0.372265	-0.0191113	-0.0201182	-0.14138	0.443826	
456	20	14903	0.00851	0.0774	0.25	5.50105e-12	-9.54865e-09	1.32175e-09	9.23854e-10	8.89104e-10	-3.00508e-09	-1.80565e-10	-9.65065e-11	-1.39196e-09	0.00480847	-0.000805067	-0.629865	-0.0145841	-0.00779476	-0.112427	0.659145	
