%element	local	global	x	y	z	dx	dy	dz	e11	e22	e33	e12	e23	e13	s11	s22	s33	s12	s23	s13	von
0	0	1	-0.5	-0.5	0	-0.015	-0.015	0	0.03	0.03	-0.1	1.73472e-17	8.1532e-17	1.9082e-16	8.00642e-16	6.67201e-16	-1	6.67201e-17	3.13585e-16	7.33921e-16	1	
