%element	local	global	x	y	z	dx	dy	dz	e11	e22	e33	e12	e23	e13	s11	s22	s33	s12	s23	s13	von
124	0	91	1.27001	0	0	0.0996959	0	0	0.00111407	-0.182423	0.0408705	-0.00152207	0	-0.000127666	-0.380822	-1.9103	-0.049519	-0.00634197	0	-0.000531943	2.15227	
124	1	90	1.37041	0	0	0.0998078	0	0	0.00111407	-0.182423	0.0408705	-0.00152207	0	-0.000127666	-0.380822	-1.9103	-0.049519	-0.00634197	0	-0.000531943	2.15227	
125	0	91	1.27001	0	0	0.0996959	0	0	-2.9527e-05	-0.182423	0.0436966	-0.0013968	0.000256892	-0.00109559	-0.385679	-1.90562	-0.0212942	-0.00581999	0.00107038	-0.00456494	2.16933	
231	3	83	3.26219	0	0	0.105260	0	0	0.0120573	-0.104294	0.0234462	-0.00452811	-4.89873e-05	0.000216739	-0.0906061	-1.0602	0.00430108	-0.0188671	-0.000204114	0.000903078	1.2666	
232	0	83	3.26219	0	0	0.105260	0	0	0.0121492	-0.104284	0.0226756	-0.00450593	-7.26782e-05	-0.000123307	-0.0916995	-1.06198	-0.00397897	-0.0187747	-0.000302826	-0.000513781	1.2614	
232	1	82	3.86064	0	0	0.112531	0	0	0.0121492	-0.104284	0.0226756	-0.00450593	-7.26782e-05	-0.000123307	-0.0916995	-1.06198	-0.00397897	-0.0187747	-0.000302826	-0.000513781	1.2614	
233	0	83	3.26219	0	0	0.105260	0	0	0.0121492	-0.104294	0.0225549	-0.00448002	1.60095e-05	-0.000318603	-0.0920615	-1.06242	-0.00534666	-0.0186668	6.67064e-05	-0.00132751	1.26065	
233	2	82	3.86064	0	0	0.112531	0	0	0.0121492	-0.104294	0.0225549	-0.00448002	1.60095e-05	-0.000318603	-0.0920615	-1.06242	-0.00534666	-0.0186668	6.67064e-05	-0.00132751	1.26065	
394	0	83	3.26219	0	0	0.105260	0	0	0.010550	-0.104909	0.0226756	-0.00236318	-7.26782e-05	-0.000123307	-0.111204	-1.07336	-0.0101569	-0.00984657	-0.000302826	-0.000513781	1.26237	
395	0	83	3.26219	0	0	0.105260	0	0	0.0105014	-0.104915	0.0234462	-0.00241152	-6.76336e-05	0.000260207	-0.109621	-1.07143	-0.00174764	-0.010048	-0.000281807	0.0010842	1.2677	
465	3	89	1.49592	0	0	0.0993853	0	0	-0.00258862	-0.16024	0.0380935	-0.0074574	-0.000157815	-0.000801341	-0.368057	-1.68181	-0.0290398	-0.0310725	-0.000657562	-0.00333892	1.89673	
466	0	90	1.37041	0	0	0.0998078	0	0	-0.00336555	-0.160692	0.0402576	-0.00788933	0.000596759	0.000612693	-0.371935	-1.68299	-0.00840857	-0.0328722	0.0024865	0.00255289	1.91492	
466	1	89	1.49592	0	0	0.0993853	0	0	-0.00336555	-0.160692	0.0402576	-0.00788933	0.000596759	0.000612693	-0.371935	-1.68299	-0.00840857	-0.0328722	0.0024865	0.00255289	1.91492	
467	0	90	1.37041	0	0	0.0998078	0	0	-0.00336555	-0.16024	0.0408705	-0.00732807	-0.000464556	-0.000127666	-0.368976	-1.67626	-0.000342303	-0.0305336	-0.00193565	-0.000531943	1.91468	
467	2	89	1.49592	0	0	0.0993853	0	0	-0.00336555	-0.16024	0.0408705	-0.00732807	-0.000464556	-0.000127666	-0.368976	-1.67626	-0.000342303	-0.0305336	-0.00193565	-0.000531943	1.91468	
520	0	92	1.18969	0	0	0.0998554	0	0	0.00646922	-0.205154	0.0452578	0.00292615	0.000662092	0.00079574	-0.372277	-2.13581	-0.0490391	0.0121923	0.00275872	0.00331559	2.43108	
521	0	92	1.18969	0	0	0.0998554	0	0	0.0072603	-0.204533	0.0453944	0.00136747	-0.000128285	0.0020781	-0.361381	-2.12632	-0.0435967	0.00569778	-0.00053452	0.00865876	2.42808	
592	0	92	1.18969	0	0	0.0998554	0	0	-0.00198602	-0.182423	0.0436966	-0.00118253	0	0.00125014	-0.407417	-1.91106	-0.0267289	-0.00492722	0	0.0052089	2.16363	
592	1	91	1.27001	0	0	0.0996959	0	0	-0.00198602	-0.182423	0.0436966	-0.00118253	0	0.00125014	-0.407417	-1.91106	-0.0267289	-0.00492722	0	0.0052089	2.16363	
593	0	92	1.18969	0	0	0.0998554	0	0	-0.00275096	-0.182423	0.0453944	-0.00010045	0.00249181	0.000225921	-0.411201	-1.90847	-0.00998933	-0.00041854	0.0103825	0.000941337	2.17381	
682	0	90	1.37041	0	0	0.0998078	0	0	-0.00309893	-0.162833	0.0402576	0.00493862	0.000596759	0.000612693	-0.374921	-1.70604	-0.0136165	0.0205776	0.0024865	0.00255289	1.93689	
683	0	90	1.37041	0	0	0.0998078	0	0	-0.00276656	-0.162426	0.0408705	0.00571243	-0.000418776	-0.000402844	-0.368393	-1.69888	-0.00475083	0.0238018	-0.0017449	-0.00167852	1.93828	
1203	3	87	1.8489	0	0	0.0978285	0	0	-0.000768692	-0.11951	0.0314853	-0.00824059	-0.000219826	0.000324137	-0.253054	-1.24256	0.0157298	-0.0343358	-0.00091594	0.00135057	1.44098	
1204	0	87	1.8489	0	0	0.0978285	0	0	-0.000336481	-0.119236	0.0298383	-0.00789252	-0.000686468	-0.000200146	-0.252066	-1.24289	-0.000609195	-0.0328855	-0.00286028	-0.000833941	1.42738	
1204	1	86	2.09402	0	0	0.0977461	0	0	-0.000336481	-0.119236	0.0298383	-0.00789252	-0.000686468	-0.000200146	-0.252066	-1.24289	-0.000609195	-0.0328855	-0.00286028	-0.000833941	1.42738	
1205	0	87	1.8489	0	0	0.0978285	0	0	-0.000336481	-0.11951	0.0288853	-0.00794712	0.000380304	-6.32669e-05	-0.255474	-1.24859	-0.0119584	-0.033113	0.0015846	-0.000263612	1.42326	
1205	2	86	2.09402	0	0	0.0977461	0	0	-0.000336481	-0.11951	0.0288853	-0.00794712	0.000380304	-6.32669e-05	-0.255474	-1.24859	-0.0119584	-0.033113	0.0015846	-0.000263612	1.42326	
1221	3	92	1.18969	0	0	0.0998554	0	0	0.00550823	-0.204857	0.0453944	0.0057927	-1.96858e-05	0.000642148	-0.38175	-2.1348	-0.0493654	0.0241363	-8.20242e-05	0.00267562	2.42639	
1222	0	92	1.18969	0	0	0.0998554	0	0	0.0067727	-0.205418	0.0452578	0.00638553	0.000662092	0.00079574	-0.369637	-2.13789	-0.0489277	0.0266064	0.00275872	0.00331559	2.43502	
1223	0	92	1.18969	0	0	0.0998554	0	0	0.00563886	-0.204962	0.0460981	0.00575186	-0.000583916	0.00141989	-0.378634	-2.13364	-0.0414733	0.0239661	-0.00243298	0.00591621	2.43291	
1257	3	89	1.49592	0	0	0.0993853	0	0	-0.00465267	-0.147958	0.0380935	0.00312328	-0.000345758	-0.000994056	-0.356874	-1.55108	-0.000656687	0.0130137	-0.00144066	-0.0041419	1.76563	
1258	0	89	1.49592	0	0	0.0993853	0	0	-0.00496513	-0.14848	0.0402576	0.00307271	0.000596759	0.000612693	-0.355785	-1.55174	0.0210707	0.012803	0.0024865	0.00255289	1.78589	
1259	0	89	1.49592	0	0	0.0993853	0	0	-0.00465148	-0.148503	0.0368371	0.00306334	0.0013226	-0.000917201	-0.361866	-1.56063	-0.0161286	0.0127639	0.00551081	-0.00382167	1.76199	
1329	3	79	6.71262	0	0	0.159496	0	0	0.0188064	-0.101415	0.0207016	-0.000756777	-2.561e-06	-5.87089e-05	-0.0152455	-1.01709	0.000548194	-0.00315324	-1.06708e-05	-0.00024462	1.23995	
1330	0	79	6.71262	0	0	0.159496	0	0	0.0188167	-0.101418	0.0204767	-0.000761044	-8.32117e-06	-2.23887e-05	-0.0157624	-1.01772	-0.0019288	-0.00317102	-3.46715e-05	-9.32864e-05	1.23847	
1331	0	79	6.71262	0	0	0.159496	0	0	0.0188078	-0.101421	0.0208454	-0.00077129	3.97092e-05	0.000103661	-0.0148445	-1.01675	0.00213543	-0.00321371	0.000165455	0.000431923	1.24099	
1348	0	8	1	0	0	0.0970204	0	0	0.0382094	-0.882997	0.0386853	0.110161	-0.196532	0.0501567	-1.92076	-9.59748	-1.91679	0.459003	-0.818883	0.208986	9.55163	
1798	0	87	1.8489	0	0	0.0978285	0	0	-0.00237345	-0.12283	0.0298383	0.000377192	-0.000686468	-0.000200146	-0.284682	-1.28849	-0.016251	0.00157163	-0.00286028	-0.000833941	1.45686	
1799	0	87	1.8489	0	0	0.0978285	0	0	-0.00288006	-0.122982	0.0314853	-0.000181018	-0.000364052	0.000615537	-0.286157	-1.287	0.00022091	-0.000754244	-0.00151688	0.00256474	1.46895	
1905	3	88	1.6528	0	0	0.0989895	0	0	-0.00743471	-0.134389	0.0349205	-0.00470004	-0.000473327	-0.00317447	-0.358909	-1.41686	-0.00594945	-0.0195835	-0.0019722	-0.0132269	1.59749	
1906	0	88	1.6528	0	0	0.0989895	0	0	-0.00682023	-0.134653	0.0344416	-0.00569646	0.00073934	0.00180523	-0.354145	-1.41942	-0.0102968	-0.0237352	0.00308058	0.00752178	1.59841	
1907	0	88	1.6528	0	0	0.0989895	0	0	-0.00652886	-0.134649	0.0368371	-0.00537016	-0.000423372	9.35846e-05	-0.344243	-1.41191	0.0171394	-0.0223757	-0.00176405	0.000389936	1.61668	
2013	3	89	1.49592	0	0	0.0993853	0	0	-0.00385548	-0.144332	0.0380935	-0.00969977	-0.000446828	-0.000642997	-0.337945	-1.50858	0.0116292	-0.0404157	-0.00186179	-0.00267916	1.73239	
2014	0	89	1.49592	0	0	0.0993853	0	0	-0.00252348	-0.144875	0.0368371	-0.0101522	0.000731654	0.00113536	-0.328143	-1.5144	-0.000138534	-0.0423007	0.00304856	0.00473067	1.73265	
2014	1	88	1.6528	0	0	0.0989895	0	0	-0.00252348	-0.144875	0.0368371	-0.0101522	0.000731654	0.00113536	-0.328143	-1.5144	-0.000138534	-0.0423007	0.00304856	0.00473067	1.73265	
2015	0	89	1.49592	0	0	0.0993853	0	0	-0.00252348	-0.144332	0.0349205	-0.00822302	0.00142186	-0.0014651	-0.331959	-1.5137	-0.0199263	-0.0342626	0.00592443	-0.00610457	1.7127	
2015	2	88	1.6528	0	0	0.0989895	0	0	-0.00252348	-0.144332	0.0349205	-0.00822302	0.00142186	-0.0014651	-0.331959	-1.5137	-0.0199263	-0.0342626	0.00592443	-0.00610457	1.7127	
2031	3	95	1.0329	0	0	0.0973585	0	0	0.0631616	-0.387581	0.0453594	-0.0428275	0.0112412	0.0222399	-0.24882	-4.00501	-0.397171	-0.178448	0.0468384	0.0926663	4.49431	
2032	0	95	1.0329	0	0	0.0973585	0	0	0.0450526	-0.314746	0.0498483	-0.00399442	-0.029203	-0.00367906	-0.235244	-3.23357	-0.19528	-0.0166434	-0.121679	-0.0153294	3.71108	
2033	0	95	1.0329	0	0	0.0973585	0	0	0.0724547	-0.370651	0.0463466	0.0249604	0.00254057	-0.000712215	-0.0957941	-3.78834	-0.313362	0.104002	0.0105857	-0.00296756	4.35038	
2085	3	79	6.71262	0	0	0.159496	0	0	0.0190102	-0.101145	0.0207016	-0.00127772	-2.86832e-06	-5.82847e-05	-0.0122296	-1.01352	0.00186573	-0.00532382	-1.19513e-05	-0.000242853	1.2379	
2086	0	79	6.71262	0	0	0.159496	0	0	0.0190096	-0.101144	0.0204767	-0.00127846	-8.32117e-06	-2.23887e-05	-0.0128582	-1.01414	-0.000632653	-0.00532691	-3.46715e-05	-9.32864e-05	1.23635	
2086	1	78	8.17368	0	0	0.187270	0	0	0.0190096	-0.101144	0.0204767	-0.00127846	-8.32117e-06	-2.23887e-05	-0.0128582	-1.01414	-0.000632653	-0.00532691	-3.46715e-05	-9.32864e-05	1.23635	
2087	0	79	6.71262	0	0	0.159496	0	0	0.0190096	-0.101145	0.0202993	-0.00127815	1.53766e-05	-2.61269e-05	-0.0133529	-1.01464	-0.00260547	-0.00532561	6.40692e-05	-0.000108862	1.23515	
2087	2	78	8.17368	0	0	0.187270	0	0	0.0190096	-0.101145	0.0202993	-0.00127815	1.53766e-05	-2.61269e-05	-0.0133529	-1.01464	-0.00260547	-0.00532561	6.40692e-05	-0.000108862	1.23515	
2157	3	82	3.86064	0	0	0.112531	0	0	0.0147062	-0.103901	0.0225549	-0.00239092	-1.95295e-05	-0.000386461	-0.0625594	-1.05095	0.00284714	-0.00996216	-8.13729e-05	-0.00161025	1.26462	
2158	0	82	3.86064	0	0	0.112531	0	0	0.0146826	-0.103896	0.0226756	-0.00243795	-7.26782e-05	-0.000123307	-0.0624718	-1.05063	0.00413663	-0.0101581	-0.000302826	-0.000513781	1.26533	
2159	0	82	3.86064	0	0	0.112531	0	0	0.0146944	-0.103903	0.0221521	-0.00243892	5.24599e-05	-5.87274e-05	-0.063813	-1.05212	-0.00166572	-0.0101622	0.000218583	-0.000244697	1.2618	
2176	0	7	10	0	0	0.223326	0	0	0.0196527	-0.0991571	0.0200075	-0.000122367	0	-2.11119e-06	-0.00149655	-0.991579	0.00145969	-0.000509863	0	-8.79662e-06	1.21501	
2229	3	78	8.17368	0	0	0.187270	0	0	0.0196374	-0.1007	0.0202993	-0.000219538	4.76832e-07	-4.48644e-05	-0.00514165	-1.00795	0.000374043	-0.00091474	1.9868e-06	-0.000186935	1.2327	
2230	0	78	8.17368	0	0	0.187270	0	0	0.0196346	-0.100698	0.0204767	-0.000220975	-8.32117e-06	-2.23887e-05	-0.00467616	-1.00745	0.00234148	-0.00092073	-3.46715e-05	-9.32864e-05	1.23388	
2231	0	78	8.17368	0	0	0.187270	0	0	0.0196372	-0.100698	0.0201442	-0.000224107	-1.27625e-05	7.81107e-06	-0.00556858	-1.00836	-0.00134363	-0.000933781	-5.31769e-05	3.25461e-05	1.23162	
2392	0	80	5.54378	0	0	0.138794	0	0	0.0161344	-0.102201	0.0211944	-0.00296912	6.76052e-05	8.67507e-05	-0.0457478	-1.03188	-0.00358113	-0.0123713	0.000281688	0.000361461	1.24261	
2393	0	80	5.54378	0	0	0.138794	0	0	0.0161455	-0.102194	0.0211488	-0.00294816	4.74479e-06	-6.45701e-05	-0.0457311	-1.03189	-0.00403709	-0.012284	1.977e-05	-0.000269042	1.24226	
2481	3	95	1.0329	0	0	0.0973585	0	0	-0.0200934	-0.285427	0.0453594	-0.0627324	0.00310571	0.0304197	-0.890115	-3.10123	-0.344674	-0.261385	0.0129405	0.126749	3.20886	
2482	0	95	1.0329	0	0	0.0973585	0	0	0.0236818	-0.266104	0.0463466	-0.0316462	-0.00583775	0.00771168	-0.347306	-2.76219	-0.158433	-0.131859	-0.024324	0.032132	3.12288	
2482	1	94	1.07403	0	0	0.0983325	0	0	0.0236818	-0.266104	0.0463466	-0.0316462	-0.00583775	0.00771168	-0.347306	-2.76219	-0.158433	-0.131859	-0.024324	0.032132	3.12288	
2483	0	95	1.0329	0	0	0.0973585	0	0	0.0236818	-0.285427	0.0454397	-0.0347561	0.00300165	0.00865114	-0.4035	-2.97941	-0.222184	-0.144817	0.0125069	0.0360464	3.3147	
2483	2	94	1.07403	0	0	0.0983325	0	0	0.0236818	-0.285427	0.0454397	-0.0347561	0.00300165	0.00865114	-0.4035	-2.97941	-0.222184	-0.144817	0.0125069	0.0360464	3.3147	
2554	0	81	4.6087	0	0	0.123124	0	0	0.016758	-0.102422	0.0211488	-0.00222068	0	-6.78539e-05	-0.0395577	-1.03272	-0.0029681	-0.00925283	0	-0.000282724	1.24653	
2554	1	80	5.54378	0	0	0.138794	0	0	0.016758	-0.102422	0.0211488	-0.00222068	0	-6.78539e-05	-0.0395577	-1.03272	-0.0029681	-0.00925283	0	-0.000282724	1.24653	
2555	0	81	4.6087	0	0	0.123124	0	0	0.0167337	-0.102422	0.0217863	-0.00221276	1.84494e-05	0.000148986	-0.0380577	-1.03102	0.00404794	-0.00921982	7.68727e-05	0.000620777	1.25084	
2644	0	93	1.12543	0	0	0.0990126	0	0	0.0171198	-0.230519	0.0460981	0.00509844	0.000109175	0.00213265	-0.32206	-2.38571	-0.080573	0.0212435	0.000454896	0.00888604	2.72848	
2645	0	93	1.12543	0	0	0.0990126	0	0	0.0130837	-0.230381	0.0460913	0.00127627	8.67494e-06	0.0052746	-0.36654	-2.39541	-0.091477	0.0053178	3.61456e-05	0.0219775	2.71437	
2787	3	84	2.78344	0	0	0.100794	0	0	0.00564308	-0.108994	0.0249573	-0.00590469	-8.23694e-05	-0.000463401	-0.170736	-1.12605	-0.00978413	-0.0246029	-0.000343206	-0.00193084	1.30544	
2788	0	85	2.40043	0	0	0.0987006	0	0	0.005466	-0.109013	0.0255962	-0.00610107	6.7225e-05	0.000238672	-0.17098	-1.12497	-0.00322835	-0.0254211	0.000280104	0.000994468	1.3097	
2788	1	84	2.78344	0	0	0.100794	0	0	0.005466	-0.109013	0.0255962	-0.00610107	6.7225e-05	0.000238672	-0.17098	-1.12497	-0.00322835	-0.0254211	0.000280104	0.000994468	1.3097	
2789	0	85	2.40043	0	0	0.0987006	0	0	0.005466	-0.108994	0.0268111	-0.00579332	-0.000336047	-0.000873945	-0.167554	-1.12139	0.0103225	-0.0241388	-0.0014002	-0.00364144	1.31813	
2789	2	84	2.78344	0	0	0.100794	0	0	0.005466	-0.108994	0.0268111	-0.00579332	-0.000336047	-0.000873945	-0.167554	-1.12139	0.0103225	-0.0241388	-0.0014002	-0.00364144	1.31813	
2805	3	80	5.54378	0	0	0.138794	0	0	0.017714	-0.101685	0.0211488	-0.00191951	-8.71486e-06	-9.97368e-05	-0.0268896	-1.02188	0.00173344	-0.00799795	-3.63119e-05	-0.00041557	1.24217	
2806	0	80	5.54378	0	0	0.138794	0	0	0.0177117	-0.101691	0.0208454	-0.00193724	5.56682e-05	0.000125743	-0.0277736	-1.02279	-0.00165959	-0.00807182	0.000231951	0.000523928	1.24014	
2806	1	79	6.71262	0	0	0.159496	0	0	0.0177117	-0.101691	0.0208454	-0.00193724	5.56682e-05	0.000125743	-0.0277736	-1.02279	-0.00165959	-0.00807182	0.000231951	0.000523928	1.24014	
2807	0	80	5.54378	0	0	0.138794	0	0	0.0177117	-0.101685	0.0207016	-0.00192117	1.43284e-05	-3.53404e-05	-0.0281576	-1.02313	-0.00324181	-0.00800489	5.97016e-05	-0.000147251	1.23909	
2807	2	79	6.71262	0	0	0.159496	0	0	0.0177117	-0.101685	0.0207016	-0.00192117	1.43284e-05	-3.53404e-05	-0.0281576	-1.02313	-0.00324181	-0.00800489	5.97016e-05	-0.000147251	1.23909	
2913	3	80	5.54378	0	0	0.138794	0	0	0.018271	-0.102049	0.0211488	-0.00175675	-8.68113e-06	-9.97867e-05	-0.0217111	-1.02438	0.00227059	-0.0073198	-3.61714e-05	-0.000415778	1.24773	
2914	0	80	5.54378	0	0	0.138794	0	0	0.0182639	-0.102054	0.0211944	-0.00177163	6.76052e-05	8.67507e-05	-0.0216776	-1.02433	0.00274271	-0.00738181	0.000281688	0.000361461	1.24808	
2915	0	80	5.54378	0	0	0.138794	0	0	0.0182668	-0.102054	0.0208454	-0.00177441	7.27584e-05	0.000100422	-0.0226139	-1.02528	-0.00112544	-0.00739336	0.00030316	0.000418426	1.24569	
2985	3	86	2.09402	0	0	0.0977461	0	0	0.0028947	-0.114367	0.0288853	-0.00755358	-0.000172543	-0.000627384	-0.205287	-1.18247	0.011302	-0.0314733	-0.000718927	-0.0026141	1.38041	
2986	0	86	2.09402	0	0	0.0977461	0	0	0.00311518	-0.114558	0.0274904	-0.0078105	0.000582197	0.000382319	-0.207241	-1.18785	-0.00411461	-0.0325438	0.00242582	0.001593	1.37304	
2986	1	85	2.40043	0	0	0.0987006	0	0	0.00311518	-0.114558	0.0274904	-0.0078105	0.000582197	0.000382319	-0.207241	-1.18785	-0.00411461	-0.0325438	0.00242582	0.001593	1.37304	
2987	0	86	2.09402	0	0	0.0977461	0	0	0.00311518	-0.114367	0.0268111	-0.00739924	0.000222366	-0.000873945	-0.208599	-1.18762	-0.0111324	-0.0308302	0.000926527	-0.00364144	1.36611	
2987	2	85	2.40043	0	0	0.0987006	0	0	0.00311518	-0.114367	0.0268111	-0.00739924	0.000222366	-0.000873945	-0.208599	-1.18762	-0.0111324	-0.0308302	0.000926527	-0.00364144	1.36611	
3201	3	81	4.6087	0	0	0.123124	0	0	0.0142186	-0.103307	0.0217863	-0.00275441	-5.45018e-06	0.000120182	-0.0684609	-1.04784	-0.00539617	-0.0114767	-2.27091e-05	0.000500756	1.25167	
3202	0	82	3.86064	0	0	0.112531	0	0	0.0141602	-0.103308	0.0221521	-0.00276501	1.06435e-05	-5.96818e-06	-0.0680993	-1.047	-0.00149959	-0.0115209	4.43478e-05	-2.48674e-05	1.25404	
3202	1	81	4.6087	0	0	0.123124	0	0	0.0141602	-0.103308	0.0221521	-0.00276501	1.06435e-05	-5.96818e-06	-0.0680993	-1.047	-0.00149959	-0.0115209	4.43478e-05	-2.48674e-05	1.25404	
3203	0	82	3.86064	0	0	0.112531	0	0	0.0141602	-0.103307	0.0225549	-0.00270811	-7.33133e-05	-0.000318603	-0.0669749	-1.04586	0.0029816	-0.0112838	-0.000305472	-0.00132751	1.25681	
3203	2	81	4.6087	0	0	0.123124	0	0	0.0141602	-0.103307	0.0225549	-0.00270811	-7.33133e-05	-0.000318603	-0.0669749	-1.04586	0.0029816	-0.0112838	-0.000305472	-0.00132751	1.25681	
3274	0	88	1.6528	0	0	0.0989895	0	0	0.000249957	-0.134597	0.0344416	-0.00420665	0.00073934	0.00180523	-0.275431	-1.39915	0.00949873	-0.0175277	0.00308058	0.00752178	1.61765	
3275	0	88	1.6528	0	0	0.0989895	0	0	-0.0012064	-0.134345	0.0349205	-0.00342392	-0.000162833	-0.00125183	-0.289584	-1.39908	0.0114727	-0.0142664	-0.000678471	-0.00521596	1.61426	
3309	3	86	2.09402	0	0	0.0977461	0	0	0.00137246	-0.116558	0.0288853	-0.00243837	-0.000100207	-0.000771001	-0.228284	-1.21103	0.000989689	-0.0101599	-0.000417528	-0.0032125	1.39723	
3310	0	86	2.09402	0	0	0.0977461	0	0	0.00120292	-0.11655	0.0298383	-0.00289168	-0.000686468	-0.000200146	-0.227501	-1.20878	0.0111271	-0.0120487	-0.00286028	-0.000833941	1.4036	
3311	0	86	2.09402	0	0	0.0977461	0	0	0.00139946	-0.116766	0.0274904	-0.00256257	0.000981265	-0.00041001	-0.232438	-1.21715	-0.0150137	-0.0106774	0.00408861	-0.00170837	1.38937	
3904	0	94	1.07403	0	0	0.0983325	0	0	0.0132314	-0.244123	0.0454397	-0.0125758	0	0.00865114	-0.404884	-2.54951	-0.136481	-0.0523992	0	0.0360464	2.85211	
3904	1	93	1.12543	0	0	0.0990126	0	0	0.0132314	-0.244123	0.0454397	-0.0125758	0	0.00865114	-0.404884	-2.54951	-0.136481	-0.0523992	0	0.0360464	2.85211	
3905	2	93	1.12543	0	0	0.0990126	0	0	0.00774278	-0.244123	0.0460913	-0.0179647	0.00103714	0.00632207	-0.464059	-2.56294	-0.144488	-0.0748529	0.0043214	0.026342	2.84087	
3939	3	85	2.40043	0	0	0.0987006	0	0	0.00543606	-0.111537	0.0268111	-0.00173156	-7.17836e-05	-0.00129413	-0.174949	-1.14973	0.00317628	-0.00721484	-0.000299098	-0.00539221	1.34333	
3940	0	85	2.40043	0	0	0.0987006	0	0	0.00551395	-0.111637	0.0274904	-0.00195887	0.000582197	0.000382319	-0.172475	-1.14873	0.0106621	-0.00816197	0.00242582	0.001593	1.34943	
3941	0	85	2.40043	0	0	0.0987006	0	0	0.00547858	-0.111557	0.0255962	-0.00206348	0.000360679	-0.000227927	-0.177908	-1.15321	-0.0102609	-0.00859783	0.00150283	-0.000949695	1.33498	
4083	3	92	1.18969	0	0	0.0998554	0	0	0.00886413	-0.22423	0.0453944	-0.0108666	0.000409666	0.00108368	-0.398276	-2.34073	-0.0938568	-0.0452773	0.00170694	0.00451535	2.63462	
4084	0	93	1.12543	0	0	0.0990126	0	0	0.0131155	-0.22443	0.0460981	-0.00699836	0.000109175	0.00213265	-0.349638	-2.32918	-0.0747832	-0.0291598	0.000454896	0.00888604	2.65413	
4084	1	92	1.18969	0	0	0.0998554	0	0	0.0131155	-0.22443	0.0460981	-0.00699836	0.000109175	0.00213265	-0.349638	-2.32918	-0.0747832	-0.0291598	0.000454896	0.00888604	2.65413	
4085	0	93	1.12543	0	0	0.0990126	0	0	0.0131155	-0.22423	0.0460913	-0.0127347	1.25572e-05	0.00526576	-0.349102	-2.32698	-0.0743041	-0.0530614	5.23218e-05	0.0219407	2.65339	
4085	2	92	1.18969	0	0	0.0998554	0	0	0.0131155	-0.22423	0.0460913	-0.0127347	1.25572e-05	0.00526576	-0.349102	-2.32698	-0.0743041	-0.0530614	5.23218e-05	0.0219407	2.65339	
4191	3	95	1.0329	0	0	0.0973585	0	0	-0.0168965	-0.250851	0.0453594	0.24055	0.0300094	0.0455559	-0.758549	-2.70817	-0.23975	1.00229	0.125039	0.189816	3.34101	
4192	0	95	1.0329	0	0	0.0973585	0	0	-0.0179994	-0.335736	0.0464904	-0.078569	-0.0756805	0.0105969	-1.00345	-3.65125	-0.466037	-0.327371	-0.315335	0.0441538	3.77845	
4193	0	95	1.0329	0	0	0.0973585	0	0	-0.0424649	0.117559	0.0429105	-0.108164	-0.0812366	0.0297244	-0.0260829	1.30745	0.685379	-0.450684	-0.338486	0.123852	1.50838	
4426	0	84	2.78344	0	0	0.100794	0	0	0.00932879	-0.106131	0.0249573	-0.00484425	0	-6.00473e-05	-0.121829	-1.08399	0.00840841	-0.0201844	0	-0.000250197	1.28742	
4426	1	83	3.26219	0	0	0.105260	0	0	0.00932879	-0.106131	0.0249573	-0.00484425	0	-6.00473e-05	-0.121829	-1.08399	0.00840841	-0.0201844	0	-0.000250197	1.28742	
4427	2	83	3.26219	0	0	0.105260	0	0	0.00939857	-0.106131	0.0234462	-0.00478571	-0.00022061	7.78202e-05	-0.125251	-1.088	-0.00818747	-0.0199404	-0.000919207	0.000324251	1.27696	
4480	0	88	1.6528	0	0	0.0989895	0	0	-0.00591998	-0.127292	0.0349205	-0.0090633	0	-0.0014651	-0.322364	-1.33379	0.0179729	-0.0377638	0	-0.00610457	1.53074	
4480	1	87	1.8489	0	0	0.0978285	0	0	-0.00591998	-0.127292	0.0349205	-0.0090633	0	-0.0014651	-0.322364	-1.33379	0.0179729	-0.0377638	0	-0.00610457	1.53074	
4481	2	87	1.8489	0	0	0.0978285	0	0	-0.00478402	-0.127292	0.0314853	-0.00836537	-0.000896903	-0.000251712	-0.319284	-1.34018	-0.0170396	-0.0348557	-0.0037371	-0.0010488	1.50848	
4515	3	95	1.0329	0	0	0.0973585	0	0	0.0654534	-0.325333	0.0453594	0.30329	0.0132985	0.0336656	-0.050444	-3.307	-0.217894	1.26371	0.0554106	0.140273	4.43895	
4516	0	95	1.0329	0	0	0.0973585	0	0	0.0230274	-0.314336	0.0498483	-0.00568321	-0.029203	-0.00367906	-0.478829	-3.29019	-0.255322	-0.02368	-0.121679	-0.0153294	3.63444	
4517	0	95	1.0329	0	0	0.0973585	0	0	-0.00989469	-0.163701	0.0464904	0.0552293	-0.0647975	0.0183404	-0.435526	-1.71725	0.0343502	0.230122	-0.26999	0.0764185	2.06992	
4948	0	84	2.78344	0	0	0.100794	0	0	0.00844577	-0.107678	0.0255962	-0.00210851	6.7225e-05	0.000238672	-0.134163	-1.10186	0.00875747	-0.00878547	0.000280104	0.000994468	1.30458	
4949	0	84	2.78344	0	0	0.100794	0	0	0.00838619	-0.107668	0.0249573	-0.00207757	9.48632e-05	-0.000187494	-0.136572	-1.10369	0.00152036	-0.00865654	0.000395263	-0.000781225	1.29976	
6316	0	94	1.07403	0	0	0.0983325	0	0	0.0331847	-0.255218	0.0463466	-0.00854052	-0.00583775	0.00771168	-0.21148	-2.61484	-0.101798	-0.0355855	-0.024324	0.032132	3.03515	
6317	0	94	1.07403	0	0	0.0983325	0	0	0.0355945	-0.264972	0.0454397	0.00486338	0.00151512	0.00632516	-0.214317	-2.71904	-0.132274	0.0202641	0.00631302	0.0263548	3.13554	
6550	0	81	4.6087	0	0	0.123124	0	0	0.0153506	-0.102669	0.0221521	-0.00100309	1.06435e-05	-5.96818e-06	-0.0530951	-1.03659	0.0035843	-0.00417954	4.43478e-05	-2.48674e-05	1.25126	
6551	0	81	4.6087	0	0	0.123124	0	0	0.0153837	-0.102668	0.0217863	-0.00101548	1.85414e-05	0.000148703	-0.0537423	-1.03751	-0.000386595	-0.00423116	7.72556e-05	0.000619598	1.24883	
7125	3	78	8.17368	0	0	0.187270	0	0	0.0197434	-0.100247	0.0202993	-0.000864645	-3.90949e-06	-3.94442e-05	-0.00270727	-1.00263	0.00192573	-0.00360269	-1.62895e-05	-0.000164351	1.22845	
7126	0	7	10	0	0	0.223326	0	0	0.0197423	-0.100245	0.0200075	-0.000868672	0	-2.11119e-06	-0.00352299	-1.00342	-0.00131302	-0.00361947	0	-8.79662e-06	1.22643	
7126	2	78	8.17368	0	0	0.187270	0	0	0.0197423	-0.100245	0.0200075	-0.000868672	0	-2.11119e-06	-0.00352299	-1.00342	-0.00131302	-0.00361947	0	-8.79662e-06	1.22643	
7127	3	78	8.17368	0	0	0.187270	0	0	0.019741	-0.100246	0.0201442	-0.00086639	-2.22537e-05	1.95396e-05	-0.00316018	-1.00305	0.00019968	-0.00360996	-9.27239e-05	8.14149e-05	1.22737	
7179	3	95	1.0329	0	0	0.0973585	0	0	-0.0401296	-0.268726	0.0453594	0.1219	0.0379609	0.0471617	-1.06635	-2.97132	-0.353939	0.507919	0.15817	0.196507	3.10322	
7180	0	8	1	0	0	0.0970204	0	0	0.0102752	-0.513785	0.0386853	0.025476	-0.196532	0.0501567	-1.20555	-5.57272	-0.9688	0.10615	-0.818883	0.208986	5.7366	
7180	1	95	1.0329	0	0	0.0973585	0	0	0.0102752	-0.513785	0.0386853	0.025476	-0.196532	0.0501567	-1.20555	-5.57272	-0.9688	0.10615	-0.818883	0.208986	5.7366	
7181	2	95	1.0329	0	0	0.0973585	0	0	-0.0607129	0.460646	0.0429105	-0.129231	-0.0658467	0.0328325	0.724179	5.06883	1.58771	-0.538464	-0.274361	0.136802	4.76529	
