%elemt	local	global	x	y	z	dx	dy	dz	e11	e22	e33	e12	e23	e13	s11	s22	s33	s12	s23	s13	von
0	5	69	-0.5	0	1	6.32173e-05	0.0943202	1.65346e-05	-0.0182185	-0.0117861	0.0547175	-0.00633334	-0.00861594	0.000904733	0.00243313	0.0519131	0.563479	-0.024359	-0.0331382	0.00347974	0.517721	
1	2	69	-0.5	0	1	6.32173e-05	0.0943202	1.65346e-05	-0.0163916	-0.0151126	0.0548867	0.000534316	-0.00218401	-0.000196369	0.00880992	0.0186489	0.557105	0.00205506	-0.00840003	-0.000755264	0.538711	
2	3	69	-0.5	0	1	6.32173e-05	0.0943202	1.65346e-05	-0.00194069	-0.00931541	0.0108464	-0.00714062	0.00274468	4.65206e-06	-0.0172923	-0.0740209	0.0810696	-0.0274639	0.0105565	1.78925e-05	0.168105	
2	5	83	0	0	1	0.000130139	0.101977	-6.49373e-05	-0.00194069	-0.00931541	0.0108464	-0.00714062	0.00274468	4.65206e-06	-0.0172923	-0.0740209	0.0810696	-0.0274639	0.0105565	1.78925e-05	0.168105	
2	13	86	-0.25	0	1	-8.16635e-06	0.100461	-1.76935e-05	-0.00194069	-0.00931541	0.0108464	-0.00714062	0.00274468	4.65206e-06	-0.0172923	-0.0740209	0.0810696	-0.0274639	0.0105565	1.78925e-05	0.168105	
3	0	69	-0.5	0	1	6.32173e-05	0.0943202	1.65346e-05	-0.00314049	-0.00613093	0.0106946	0.000251449	0.000535529	-0.000220415	-0.0159471	-0.0389505	0.0904765	0.00096711	0.00205973	-0.000847751	0.130513	
3	2	83	0	0	1	0.000130139	0.101977	-6.49373e-05	-0.00314049	-0.00613093	0.0106946	0.000251449	0.000535529	-0.000220415	-0.0159471	-0.0389505	0.0904765	0.00096711	0.00205973	-0.000847751	0.130513	
3	7	86	-0.25	0	1	-8.16635e-06	0.100461	-1.76935e-05	-0.00314049	-0.00613093	0.0106946	0.000251449	0.000535529	-0.000220415	-0.0159471	-0.0389505	0.0904765	0.00096711	0.00205973	-0.000847751	0.130513	
4	3	69	-0.5	0	1	6.32173e-05	0.0943202	1.65346e-05	0.0139571	0.00938958	-0.0441842	-0.0101258	-0.00295214	-0.000493879	-0.0128548	-0.0479893	-0.460096	-0.0389453	-0.0113544	-0.00189954	0.418804	
4	4	83	0	0	1	0.000130139	0.101977	-6.49373e-05	0.0139571	0.00938958	-0.0441842	-0.0101258	-0.00295214	-0.000493879	-0.0128548	-0.0479893	-0.460096	-0.0389453	-0.0113544	-0.00189954	0.418804	
4	12	86	-0.25	0	1	-8.16635e-06	0.100461	-1.76935e-05	0.0139571	0.00938958	-0.0441842	-0.0101258	-0.00295214	-0.000493879	-0.0128548	-0.0479893	-0.460096	-0.0389453	-0.0113544	-0.00189954	0.418804	
5	0	69	-0.5	0	1	6.32173e-05	0.0943202	1.65346e-05	0.0134062	0.0153718	-0.0442841	0.000349776	-0.00264626	0.00023079	0.0136674	0.0287872	-0.430104	0.00134529	-0.0101779	0.000887652	0.459363	
5	1	83	0	0	1	0.000130139	0.101977	-6.49373e-05	0.0134062	0.0153718	-0.0442841	0.000349776	-0.00264626	0.00023079	0.0136674	0.0287872	-0.430104	0.00134529	-0.0101779	0.000887652	0.459363	
5	6	86	-0.25	0	1	-8.16635e-06	0.100461	-1.76935e-05	0.0134062	0.0153718	-0.0442841	0.000349776	-0.00264626	0.00023079	0.0136674	0.0287872	-0.430104	0.00134529	-0.0101779	0.000887652	0.459363	
6	4	83	0	0	1	0.000130139	0.101977	-6.49373e-05	0.0247921	0.0248423	-0.0885095	-0.00171042	0.00243653	-0.000419821	-0.0335712	-0.0331849	-0.905122	-0.00657855	0.00937127	-0.0016147	0.872167	
7	1	83	0	0	1	0.000130139	0.101977	-6.49373e-05	0.0265497	0.0215809	-0.0881594	-0.000885373	0.00213549	0.000470596	-0.0267072	-0.0649285	-0.909085	-0.00340528	0.00821342	0.00180999	0.844735	
8	5	83	0	0	1	0.000130139	0.101977	-6.49373e-05	-0.0139738	-0.0187139	0.055171	0.00139151	0.00238826	-0.000521445	0.0222208	-0.014242	0.554103	0.00535196	0.00918562	-0.00200556	0.569238	
9	2	83	0	0	1	0.000130139	0.101977	-6.49373e-05	-0.0164395	-0.015544	0.0551909	0.000297708	-0.000917083	0.000126646	0.00743026	0.0143187	0.558434	0.00114503	-0.00352724	0.0004871	0.544175	
10	3	83	0	0	1	0.000130139	0.101977	-6.49373e-05	-0.0037371	-0.0046724	0.0105562	0.00833	0.00163903	-0.000597558	-0.0163619	-0.0235566	0.0935868	0.0320385	0.00630397	-0.0022983	0.130242	
10	5	59	0.5	0	1	9.84048e-05	0.0942271	-5.48434e-05	-0.0037371	-0.0046724	0.0105562	0.00833	0.00163903	-0.000597558	-0.0163619	-0.0235566	0.0935868	0.0320385	0.00630397	-0.0022983	0.130242	
10	13	92	0.25	0	1	5.11033e-06	0.100445	-3.53068e-05	-0.0037371	-0.0046724	0.0105562	0.00833	0.00163903	-0.000597558	-0.0163619	-0.0235566	0.0935868	0.0320385	0.00630397	-0.0022983	0.130242	
11	0	83	0	0	1	0.000130139	0.101977	-6.49373e-05	-0.00322543	-0.00652274	0.0109314	7.33364e-05	0.00113431	0.000138761	-0.0179844	-0.0433484	0.0909146	0.000282063	0.00436272	0.000533695	0.13567	
11	2	59	0.5	0	1	9.84048e-05	0.0942271	-5.48434e-05	-0.00322543	-0.00652274	0.0109314	7.33364e-05	0.00113431	0.000138761	-0.0179844	-0.0433484	0.0909146	0.000282063	0.00436272	0.000533695	0.13567	
11	7	92	0.25	0	1	5.11033e-06	0.100445	-3.53068e-05	-0.00322543	-0.00652274	0.0109314	7.33364e-05	0.00113431	0.000138761	-0.0179844	-0.0433484	0.0909146	0.000282063	0.00436272	0.000533695	0.13567	
12	3	83	0	0	1	0.000130139	0.101977	-6.49373e-05	0.0120868	0.0160529	-0.0442092	0.000419192	0.0019389	2.59212e-05	0.000266401	0.0307746	-0.43278	0.00161228	0.00745729	9.96968e-05	0.464245	
12	4	59	0.5	0	1	9.84048e-05	0.0942271	-5.48434e-05	0.0120868	0.0160529	-0.0442092	0.000419192	0.0019389	2.59212e-05	0.000266401	0.0307746	-0.43278	0.00161228	0.00745729	9.96968e-05	0.464245	
12	12	92	0.25	0	1	5.11033e-06	0.100445	-3.53068e-05	0.0120868	0.0160529	-0.0442092	0.000419192	0.0019389	2.59212e-05	0.000266401	0.0307746	-0.43278	0.00161228	0.00745729	9.96968e-05	0.464245	
13	0	83	0	0	1	0.000130139	0.101977	-6.49373e-05	0.0133366	0.0154057	-0.0446258	0.00191438	-0.00204743	0.000177162	0.0109539	0.0268699	-0.434911	0.007363	-0.00787473	0.000681392	0.462296	
13	1	59	0.5	0	1	9.84048e-05	0.0942271	-5.48434e-05	0.0133366	0.0154057	-0.0446258	0.00191438	-0.00204743	0.000177162	0.0109539	0.0268699	-0.434911	0.007363	-0.00787473	0.000681392	0.462296	
13	6	92	0.25	0	1	5.11033e-06	0.100445	-3.53068e-05	0.0133366	0.0154057	-0.0446258	0.00191438	-0.00204743	0.000177162	0.0109539	0.0268699	-0.434911	0.007363	-0.00787473	0.000681392	0.462296	
14	4	59	0.5	0	1	9.84048e-05	0.0942271	-5.48434e-05	0.0250262	0.025175	-0.0886167	0.00268671	-0.000157291	0.00108577	-0.0291184	-0.0279735	-0.903294	0.0103335	-0.000604966	0.00417603	0.875534	
15	1	59	0.5	0	1	9.84048e-05	0.0942271	-5.48434e-05	0.0271374	0.0236973	-0.0890641	0.00169155	-0.000362733	-0.000631623	-0.011805	-0.0382679	-0.905663	0.00650597	-0.00139513	-0.00242932	0.867684	
