%element	local	global	x	y	z	dx	dy	dz	e11	e22	e33	e12	e23	e13	s11	s22	s33	s12	s23	s13	von
0	0	1	-0.5	-0.5	0	-0.015	-0.015	0	0.03	0.03	-0.1	-1.94289e-16	-3.26128e-16	-7.63278e-17	-8.00642e-16	-5.33761e-16	-1	-7.47265e-16	-1.25434e-15	-2.93569e-16	1	
