%element	local	global	x	y	z	dx	dy	dz	e11	e22	e33	e12	e23	e13	s11	s22	s33	s12	s23	s13	von
0	0	1	-0.5	-0.5	0	-0.015	-0.015	0	0.03	0.03	-0.1	2.77556e-17	-2.08167e-17	-1.04083e-17	-5.33761e-16	6.67201e-17	-1	1.06752e-16	-8.00642e-17	-4.00321e-17	1	
2	0	1	-0.5	-0.5	0	-0.015	-0.015	0	0.03	0.03	-0.1	6.93889e-17	-5.55112e-17	2.22045e-16	1.0008e-15	6.67201e-17	-1	2.66881e-16	-2.13504e-16	8.54018e-16	1	
