%element	local	global	x	y	z	dx	dy	dz	e11	e22	e33	e12	e23	e13	s11	s22	s33	s12	s23	s13	von
0	0	1	-0.5	-0.5	0	-0.015	-0.015	0	0.03	0.03	-0.1	-2.77556e-17	1.02731e-16	1.73472e-16	-2.0016e-16	4.00321e-16	-1	-1.06752e-16	3.95118e-16	6.67201e-16	1	
2	3	1	-0.5	-0.5	0	-0.015	-0.015	0	0.03	0.03	-0.1	2.08167e-17	-1.66533e-16	1.47451e-16	2.66881e-16	2.66881e-16	-1	8.00642e-17	-6.40513e-16	5.67121e-16	1	
