%element	local	global	x	y	z	dx	dy	dz	e11	e22	e33	e12	e23	e13	s11	s22	s33	s12	s23	s13	von
31	4	356	-0.023	0.08	0.5	-6.05805e-11	-1.55437e-08	-7.12398e-21	2.26773e-09	2.16189e-09	-7.4933e-09	-6.08662e-11	-1.70448e-09	-9.86541e-12	-0.00485055	-0.0219477	-1.58163	-0.00491611	-0.137669	-0.000796822	1.57788	
31	7	2190	-0.0209875	0.08	0.5	-5.60167e-11	-1.55356e-08	-7.06174e-21	2.26773e-09	2.1608e-09	-7.49647e-09	8.39429e-11	-1.70398e-09	-9.01107e-12	-0.00536681	-0.0226399	-1.58266	0.00678001	-0.137629	-0.000727817	1.57822	
32	0	356	-0.023	0.08	0.5	-6.05805e-11	-1.55437e-08	-7.12398e-21	2.26773e-09	2.16189e-09	-7.4933e-09	-6.08662e-11	1.70448e-09	9.86541e-12	-0.00485055	-0.0219477	-1.58163	-0.00491611	0.137669	0.000796822	1.57788	
32	3	2190	-0.0209875	0.08	0.5	-5.60167e-11	-1.55356e-08	-7.06174e-21	2.26773e-09	2.1608e-09	-7.49647e-09	8.39429e-11	1.70398e-09	9.01107e-12	-0.00536681	-0.0226399	-1.58266	0.00678001	0.137629	0.000727817	1.57822	
95	4	2190	-0.0209875	0.08	0.5	-5.60167e-11	-1.55356e-08	-7.06174e-21	2.28745e-09	2.1608e-09	-7.49647e-09	-4.55313e-11	-1.70398e-09	-9.01107e-12	0.000208603	-0.0202505	-1.58027	-0.00367753	-0.137629	-0.000727817	1.57821	
95	7	2253	-0.018975	0.08	0.5	-5.14132e-11	-1.55279e-08	-6.98832e-21	2.28745e-09	2.15602e-09	-7.50108e-09	1.13131e-10	-1.70352e-09	-8.15672e-12	-0.000929977	-0.0221619	-1.58215	0.00913749	-0.137592	-0.000658812	1.57824	
96	0	2190	-0.0209875	0.08	0.5	-5.60167e-11	-1.55356e-08	-7.06174e-21	2.28745e-09	2.1608e-09	-7.49647e-09	-4.55313e-11	1.70398e-09	9.01107e-12	0.000208603	-0.0202505	-1.58027	-0.00367753	0.137629	0.000727817	1.57821	
96	3	2253	-0.018975	0.08	0.5	-5.14132e-11	-1.55279e-08	-6.98832e-21	2.28745e-09	2.15602e-09	-7.50108e-09	1.13131e-10	1.70352e-09	8.15672e-12	-0.000929977	-0.0221619	-1.58215	0.00913749	0.137592	0.000658812	1.57824	
159	4	2253	-0.018975	0.08	0.5	-5.14132e-11	-1.55279e-08	-6.98832e-21	2.32632e-09	2.15602e-09	-7.50108e-09	-3.7129e-11	-1.70352e-09	-8.15672e-12	0.010057	-0.0174532	-1.57745	-0.00299888	-0.137592	-0.000658812	1.57822	
159	7	2316	-0.0169625	0.08	0.5	-4.67315e-11	-1.55204e-08	-6.91482e-21	2.32632e-09	2.14757e-09	-7.50725e-09	1.49369e-10	-1.70311e-09	-7.30237e-12	0.00828624	-0.020589	-1.58021	0.0120645	-0.137559	-0.000589807	1.57799	
160	0	2253	-0.018975	0.08	0.5	-5.14132e-11	-1.55279e-08	-6.98832e-21	2.32632e-09	2.15602e-09	-7.50108e-09	-3.7129e-11	1.70352e-09	8.15672e-12	0.010057	-0.0174532	-1.57745	-0.00299888	0.137592	0.000658812	1.57822	
160	3	2316	-0.0169625	0.08	0.5	-4.67315e-11	-1.55204e-08	-6.91482e-21	2.32632e-09	2.14757e-09	-7.50725e-09	1.49369e-10	1.70311e-09	7.30237e-12	0.00828624	-0.020589	-1.58021	0.0120645	0.137559	0.000589807	1.57799	
223	4	2316	-0.0169625	0.08	0.5	-4.67315e-11	-1.55204e-08	-6.91482e-21	2.38438e-09	2.14757e-09	-7.50725e-09	-3.5711e-11	-1.70311e-09	-7.30237e-12	0.0247012	-0.013554	-1.57318	-0.00288435	-0.137559	-0.000589807	1.57796	
223	7	2379	-0.01495	0.08	0.5	-4.19329e-11	-1.55133e-08	-6.84539e-21	2.38438e-09	2.13547e-09	-7.51499e-09	1.92663e-10	-1.70275e-09	-6.44802e-12	0.0222976	-0.0179123	-1.57683	0.0155613	-0.137529	-0.000520802	1.5775	
224	0	2316	-0.0169625	0.08	0.5	-4.67315e-11	-1.55204e-08	-6.91482e-21	2.38438e-09	2.14757e-09	-7.50725e-09	-3.5711e-11	1.70311e-09	7.30237e-12	0.0247012	-0.013554	-1.57318	-0.00288435	0.137559	0.000589807	1.57796	
224	3	2379	-0.01495	0.08	0.5	-4.19329e-11	-1.55133e-08	-6.84539e-21	2.38438e-09	2.13547e-09	-7.51499e-09	1.92663e-10	1.70275e-09	6.44802e-12	0.0222976	-0.0179123	-1.57683	0.0155613	0.137529	0.000520802	1.5775	
287	4	2379	-0.01495	0.08	0.5	-4.19329e-11	-1.55133e-08	-6.84539e-21	2.46173e-09	2.13547e-09	-7.51499e-09	-4.12753e-11	-1.70275e-09	-6.44802e-12	0.0441624	-0.00854168	-1.56746	-0.00333377	-0.137529	-0.000520802	1.57746	
287	7	2442	-0.0129375	0.08	0.5	-3.69787e-11	-1.55066e-08	-6.77892e-21	2.46173e-09	2.11971e-09	-7.52429e-09	2.43132e-10	-1.70243e-09	-5.59367e-12	0.0411254	-0.0141246	-1.572	0.0196376	-0.137504	-0.000451796	1.57683	
288	0	2379	-0.01495	0.08	0.5	-4.19329e-11	-1.55133e-08	-6.84539e-21	2.46173e-09	2.13547e-09	-7.51499e-09	-4.12753e-11	1.70275e-09	6.44802e-12	0.0441624	-0.00854168	-1.56746	-0.00333377	0.137529	0.000520802	1.57746	
288	3	2442	-0.0129375	0.08	0.5	-3.69787e-11	-1.55066e-08	-6.77892e-21	2.46173e-09	2.11971e-09	-7.52429e-09	2.43132e-10	1.70243e-09	5.59367e-12	0.0411254	-0.0141246	-1.572	0.0196376	0.137504	0.000451796	1.57683	
351	4	2442	-0.0129375	0.08	0.5	-3.69787e-11	-1.55066e-08	-6.77892e-21	2.55847e-09	2.11971e-09	-7.52429e-09	-5.40089e-11	-1.70243e-09	-5.59367e-12	0.0684719	-0.00240473	-1.56028	-0.00436226	-0.137504	-0.000451796	1.57679	
351	7	2505	-0.010925	0.08	0.5	-3.18298e-11	-1.55006e-08	-6.71526e-21	2.55847e-09	2.10012e-09	-7.53512e-09	3.0071e-10	-1.70216e-09	-4.73931e-12	0.0647874	-0.00925352	-1.56571	0.0242881	-0.137482	-0.000382791	1.576	
352	0	2442	-0.0129375	0.08	0.5	-3.69787e-11	-1.55066e-08	-6.77892e-21	2.55847e-09	2.11971e-09	-7.52429e-09	-5.40089e-11	1.70243e-09	5.59367e-12	0.0684719	-0.00240473	-1.56028	-0.00436226	0.137504	0.000451796	1.57679	
352	3	2505	-0.010925	0.08	0.5	-3.18298e-11	-1.55006e-08	-6.71526e-21	2.55847e-09	2.10012e-09	-7.53512e-09	3.0071e-10	1.70216e-09	4.73931e-12	0.0647874	-0.00925352	-1.56571	0.0242881	0.137482	0.000382791	1.576	
415	4	2505	-0.010925	0.08	0.5	-3.18298e-11	-1.55006e-08	-6.71526e-21	2.67416e-09	2.10012e-09	-7.53512e-09	-7.8574e-11	-1.70216e-09	-4.73931e-12	0.0974939	0.00476358	-1.5517	-0.00634636	-0.137482	-0.000382791	1.57597	
415	7	2568	-0.0089125	0.08	0.5	-2.6448e-11	-1.54953e-08	-6.65539e-21	2.67416e-09	2.07206e-09	-7.54721e-09	3.58682e-10	-1.70193e-09	-3.88495e-12	0.0926284	-0.00463485	-1.55852	0.0289704	-0.137463	-0.000313784	1.57432	
416	0	2505	-0.010925	0.08	0.5	-3.18298e-11	-1.55006e-08	-6.71526e-21	2.67416e-09	2.10012e-09	-7.53512e-09	-7.8574e-11	1.70216e-09	4.73931e-12	0.0974939	0.00476358	-1.5517	-0.00634636	0.137482	0.000382791	1.57597	
416	3	2568	-0.0089125	0.08	0.5	-2.6448e-11	-1.54953e-08	-6.65539e-21	2.67416e-09	2.07206e-09	-7.54721e-09	3.58682e-10	1.70193e-09	3.88495e-12	0.0926284	-0.00463485	-1.55852	0.0289704	0.137463	0.000313784	1.57432	
479	4	2568	-0.0089125	0.08	0.5	-2.6448e-11	-1.54953e-08	-6.65539e-21	2.79475e-09	2.07206e-09	-7.54721e-09	-1.25227e-10	-1.70193e-09	-3.88495e-12	0.126717	0.00997435	-1.54391	-0.0101145	-0.137463	-0.000313784	1.57428	
479	7	419	-0.0069	0.08	0.5	-2.08236e-11	-1.5491e-08	-6.59967e-21	2.79475e-09	2.02902e-09	-7.55987e-09	3.81023e-10	-1.70175e-09	-3.03063e-12	0.119969	-0.00372544	-1.5527	0.0307749	-0.137449	-0.000244782	1.57051	
480	0	2568	-0.0089125	0.08	0.5	-2.6448e-11	-1.54953e-08	-6.65539e-21	2.79475e-09	2.07206e-09	-7.54721e-09	-1.25227e-10	1.70193e-09	3.88495e-12	0.126717	0.00997435	-1.54391	-0.0101145	0.137463	0.000313784	1.57428	
480	3	419	-0.0069	0.08	0.5	-2.08236e-11	-1.5491e-08	-6.59967e-21	2.79475e-09	2.02902e-09	-7.55987e-09	3.81023e-10	1.70175e-09	3.03063e-12	0.119969	-0.00372544	-1.5527	0.0307749	0.137449	0.000244782	1.57051	
1119	4	3520	0.005175	0.08	0.5	1.41179e-11	-1.54881e-08	-6.18959e-21	2.879e-09	2.00586e-09	-7.57033e-09	-2.94893e-10	-1.70161e-09	2.09057e-12	0.139714	-0.00133224	-1.54826	-0.0238183	-0.137438	0.000168854	1.56885	
1119	7	560	0.0069	0.08	0.5	1.90842e-11	-1.54909e-08	-6.10491e-21	2.879e-09	2.02782e-09	-7.56001e-09	1.50297e-10	-1.70172e-09	2.82298e-12	0.143624	0.00612522	-1.54268	0.0121394	-0.137447	0.00022801	1.57015	
1120	0	3520	0.005175	0.08	0.5	1.41179e-11	-1.54881e-08	-6.18959e-21	2.879e-09	2.00586e-09	-7.57033e-09	-2.94893e-10	1.70161e-09	-2.09057e-12	0.139714	-0.00133224	-1.54826	-0.0238183	0.137438	-0.000168854	1.56885	
1120	3	560	0.0069	0.08	0.5	1.90842e-11	-1.54909e-08	-6.10491e-21	2.879e-09	2.02782e-09	-7.56001e-09	1.50297e-10	1.70172e-09	-2.82298e-12	0.143624	0.00612522	-1.54268	0.0121394	0.137447	-0.00022801	1.57015	
1247	4	3457	0.00345	0.08	0.5	9.0987e-12	-1.54863e-08	-6.27007e-21	2.90969e-09	2.01659e-09	-7.57897e-09	-2.41872e-10	-1.70153e-09	1.35869e-12	0.148644	0.0043727	-1.54568	-0.0195358	-0.137432	0.00010974	1.5719	
1247	7	3520	0.005175	0.08	0.5	1.41179e-11	-1.54881e-08	-6.18959e-21	2.90969e-09	2.00586e-09	-7.57033e-09	2.09457e-10	-1.70161e-09	2.09057e-12	0.14839	0.00238627	-1.54454	0.0169177	-0.137438	0.000168854	1.56881	
1248	0	3457	0.00345	0.08	0.5	9.0987e-12	-1.54863e-08	-6.27007e-21	2.90969e-09	2.01659e-09	-7.57897e-09	-2.41872e-10	1.70153e-09	-1.35869e-12	0.148644	0.0043727	-1.54568	-0.0195358	0.137432	-0.00010974	1.5719	
1248	3	3520	0.005175	0.08	0.5	1.41179e-11	-1.54881e-08	-6.18959e-21	2.90969e-09	2.00586e-09	-7.57033e-09	2.09457e-10	1.70161e-09	-2.09057e-12	0.14839	0.00238627	-1.54454	0.0169177	0.137438	-0.000168854	1.56881	
1375	4	3394	0.001725	0.08	0.5	4.10293e-12	-1.54852e-08	-6.3426e-21	2.8961e-09	2.03292e-09	-7.58479e-09	-1.98904e-10	-1.70149e-09	6.27398e-13	0.146075	0.00663835	-1.54699	-0.0160654	-0.137428	5.06744e-05	1.57509	
1375	7	3457	0.00345	0.08	0.5	9.0987e-12	-1.54863e-08	-6.27007e-21	2.8961e-09	2.01659e-09	-7.57897e-09	2.32842e-10	-1.70153e-09	1.35869e-12	0.1448	0.00272558	-1.54733	0.0188064	-0.137432	0.00010974	1.57177	
1376	0	3394	0.001725	0.08	0.5	4.10293e-12	-1.54852e-08	-6.3426e-21	2.8961e-09	2.03292e-09	-7.58479e-09	-1.98904e-10	1.70149e-09	-6.27398e-13	0.146075	0.00663835	-1.54699	-0.0160654	0.137428	-5.06744e-05	1.57509	
1376	3	3457	0.00345	0.08	0.5	9.0987e-12	-1.54863e-08	-6.27007e-21	2.8961e-09	2.01659e-09	-7.57897e-09	2.32842e-10	1.70153e-09	-1.35869e-12	0.1448	0.00272558	-1.54733	0.0188064	0.137432	-0.00010974	1.57177	
1503	4	3331	0	0.08	0.5	-8.61612e-13	-1.54849e-08	-6.40679e-21	2.878e-09	2.04177e-09	-7.58683e-09	-1.98445e-10	-1.70148e-09	-1.03393e-13	0.141782	0.00669943	-1.54869	-0.0160283	-0.137427	-8.35098e-06	1.57664	
1503	7	3394	0.001725	0.08	0.5	4.10293e-12	-1.54852e-08	-6.3426e-21	2.878e-09	2.03292e-09	-7.58479e-09	2.18497e-10	-1.70149e-09	6.27398e-13	0.140958	0.00444546	-1.54918	0.0176478	-0.137428	5.06744e-05	1.57502	
1504	0	3331	0	0.08	0.5	-8.61612e-13	-1.54849e-08	-6.40679e-21	2.878e-09	2.04177e-09	-7.58683e-09	-1.98445e-10	1.70148e-09	1.03393e-13	0.141782	0.00669943	-1.54869	-0.0160283	0.137427	8.35098e-06	1.57664	
1504	3	3394	0.001725	0.08	0.5	4.10293e-12	-1.54852e-08	-6.3426e-21	2.878e-09	2.03292e-09	-7.58479e-09	2.18497e-10	1.70149e-09	-6.27398e-13	0.140958	0.00444546	-1.54918	0.0176478	0.137428	-5.06744e-05	1.57502	
1631	4	3268	-0.001725	0.08	0.5	-5.82903e-12	-1.54852e-08	-6.4617e-21	2.87967e-09	2.03258e-09	-7.58475e-09	-2.22504e-10	-1.70149e-09	-8.34474e-13	0.141393	0.00455676	-1.54901	-0.0179715	-0.137428	-6.73998e-05	1.57498	
1631	7	3331	0	0.08	0.5	-8.61612e-13	-1.54849e-08	-6.40679e-21	2.87967e-09	2.04177e-09	-7.58683e-09	1.96535e-10	-1.70148e-09	-1.03393e-13	0.142254	0.00690155	-1.54849	0.015874	-0.137427	-8.35098e-06	1.57664	
1632	0	3268	-0.001725	0.08	0.5	-5.82903e-12	-1.54852e-08	-6.4617e-21	2.87967e-09	2.03258e-09	-7.58475e-09	-2.22504e-10	1.70149e-09	8.34474e-13	0.141393	0.00455676	-1.54901	-0.0179715	0.137428	6.73998e-05	1.57498	
1632	3	3331	0	0.08	0.5	-8.61612e-13	-1.54849e-08	-6.40679e-21	2.87967e-09	2.04177e-09	-7.58683e-09	1.96535e-10	1.70148e-09	1.03393e-13	0.142254	0.00690155	-1.54849	0.015874	0.137427	8.35098e-06	1.57664	
1759	4	3205	-0.00345	0.08	0.5	-1.08299e-11	-1.54863e-08	-6.51021e-21	2.89906e-09	2.01412e-09	-7.57892e-09	-2.34668e-10	-1.70155e-09	-1.56591e-12	0.145344	0.00239319	-1.54725	-0.0189539	-0.137433	-0.000126477	1.57142	
1759	7	3268	-0.001725	0.08	0.5	-5.82903e-12	-1.54852e-08	-6.4617e-21	2.89906e-09	2.03258e-09	-7.58475e-09	1.98408e-10	-1.70149e-09	-8.34474e-13	0.146874	0.00690592	-1.54666	0.0160253	-0.137428	-6.73998e-05	1.57506	
1760	0	3205	-0.00345	0.08	0.5	-1.08299e-11	-1.54863e-08	-6.51021e-21	2.89906e-09	2.01412e-09	-7.57892e-09	-2.34668e-10	1.70155e-09	1.56591e-12	0.145344	0.00239319	-1.54725	-0.0189539	0.137433	0.000126477	1.57142	
1760	3	3268	-0.001725	0.08	0.5	-5.82903e-12	-1.54852e-08	-6.4617e-21	2.89906e-09	2.03258e-09	-7.58475e-09	1.98408e-10	1.70149e-09	8.34474e-13	0.146874	0.00690592	-1.54666	0.0160253	0.137428	6.73998e-05	1.57506	
1887	4	3142	-0.005175	0.08	0.5	-1.58528e-11	-1.54882e-08	-6.55507e-21	2.91182e-09	2.00466e-09	-7.57022e-09	-2.08003e-10	-1.70163e-09	-2.29802e-12	0.148859	0.00231819	-1.54439	-0.0168003	-0.137439	-0.000185609	1.56862	
1887	7	3205	-0.00345	0.08	0.5	-1.08299e-11	-1.54863e-08	-6.51021e-21	2.91182e-09	2.01412e-09	-7.57892e-09	2.42142e-10	-1.70155e-09	-1.56591e-12	0.148951	0.00393931	-1.54571	0.0195576	-0.137433	-0.000126477	1.57154	
1888	0	3142	-0.005175	0.08	0.5	-1.58528e-11	-1.54882e-08	-6.55507e-21	2.91182e-09	2.00466e-09	-7.57022e-09	-2.08003e-10	1.70163e-09	2.29802e-12	0.148859	0.00231819	-1.54439	-0.0168003	0.137439	0.000185609	1.56862	
1888	3	3205	-0.00345	0.08	0.5	-1.08299e-11	-1.54863e-08	-6.51021e-21	2.91182e-09	2.01412e-09	-7.57892e-09	2.42142e-10	1.70155e-09	1.56591e-12	0.148951	0.00393931	-1.54571	0.0195576	0.137433	0.000126477	1.57154	
2015	4	419	-0.0069	0.08	0.5	-2.08236e-11	-1.5491e-08	-6.59967e-21	2.88164e-09	2.02902e-09	-7.55987e-09	-1.50143e-10	-1.70175e-09	-3.03063e-12	0.144533	0.00680191	-1.54217	-0.0121269	-0.137449	-0.000244782	1.57033	
2015	7	3142	-0.005175	0.08	0.5	-1.58528e-11	-1.54882e-08	-6.55507e-21	2.88164e-09	2.00466e-09	-7.57022e-09	2.98968e-10	-1.70163e-09	-2.29802e-12	0.140327	-0.00133811	-1.54805	0.0241474	-0.137439	-0.000185609	1.56868	
2016	0	419	-0.0069	0.08	0.5	-2.08236e-11	-1.5491e-08	-6.59967e-21	2.88164e-09	2.02902e-09	-7.55987e-09	-1.50143e-10	1.70175e-09	3.03063e-12	0.144533	0.00680191	-1.54217	-0.0121269	0.137449	0.000244782	1.57033	
2016	3	3142	-0.005175	0.08	0.5	-1.58528e-11	-1.54882e-08	-6.55507e-21	2.88164e-09	2.00466e-09	-7.57022e-09	2.98968e-10	1.70163e-09	2.29802e-12	0.140327	-0.00133811	-1.54805	0.0241474	0.137439	0.000185609	1.56868	
2079	6	701	0.023	0.08	0.5	5.88435e-11	-1.55432e-08	-5.40051e-21	2.26788e-09	2.16206e-09	-7.49384e-09	6.08724e-11	-1.7044e-09	9.65806e-12	-0.00485216	-0.0219476	-1.58175	0.00491662	-0.137663	0.000780074	1.57799	
2079	7	4157	0.0209875	0.08	0.5	5.42794e-11	-1.55352e-08	-5.47743e-21	2.26788e-09	2.16095e-09	-7.49696e-09	-8.39313e-11	-1.7039e-09	8.80367e-12	-0.00536411	-0.022638	-1.58276	-0.00677907	-0.137623	0.000711066	1.57832	
2080	2	701	0.023	0.08	0.5	5.88435e-11	-1.55432e-08	-5.40051e-21	2.26788e-09	2.16206e-09	-7.49384e-09	6.08724e-11	1.7044e-09	-9.65806e-12	-0.00485216	-0.0219476	-1.58175	0.00491662	0.137663	-0.000780074	1.57799	
2080	3	4157	0.0209875	0.08	0.5	5.42794e-11	-1.55352e-08	-5.47743e-21	2.26788e-09	2.16095e-09	-7.49696e-09	-8.39313e-11	1.7039e-09	-8.80367e-12	-0.00536411	-0.022638	-1.58276	-0.00677907	0.137623	-0.000711066	1.57832	
2143	6	4157	0.0209875	0.08	0.5	5.42794e-11	-1.55352e-08	-5.47743e-21	2.28759e-09	2.16095e-09	-7.49696e-09	4.55377e-11	-1.7039e-09	8.80367e-12	0.000207646	-0.0202501	-1.58037	0.00367805	-0.137623	0.000711066	1.57831	
2143	7	4220	0.018975	0.08	0.5	4.96756e-11	-1.55275e-08	-5.55585e-21	2.28759e-09	2.15615e-09	-7.50152e-09	-1.13121e-10	-1.70345e-09	7.94928e-12	-0.000926885	-0.02216	-1.58225	-0.00913668	-0.137587	0.000642057	1.57833	
2144	2	4157	0.0209875	0.08	0.5	5.42794e-11	-1.55352e-08	-5.47743e-21	2.28759e-09	2.16095e-09	-7.49696e-09	4.55377e-11	1.7039e-09	-8.80367e-12	0.000207646	-0.0202501	-1.58037	0.00367805	0.137623	-0.000711066	1.57831	
2144	3	4220	0.018975	0.08	0.5	4.96756e-11	-1.55275e-08	-5.55585e-21	2.28759e-09	2.15615e-09	-7.50152e-09	-1.13121e-10	1.70345e-09	-7.94928e-12	-0.000926885	-0.02216	-1.58225	-0.00913668	0.137587	-0.000642057	1.57833	
2207	6	4220	0.018975	0.08	0.5	4.96756e-11	-1.55275e-08	-5.55585e-21	2.32645e-09	2.15615e-09	-7.50152e-09	3.71365e-11	-1.70345e-09	7.94928e-12	0.0100567	-0.0174527	-1.57754	0.00299949	-0.137587	0.000642057	1.57831	
2207	7	4283	0.0169625	0.08	0.5	4.49936e-11	-1.552e-08	-5.6386e-21	2.32645e-09	2.14769e-09	-7.50764e-09	-1.49361e-10	-1.70305e-09	7.09489e-12	0.00829	-0.020587	-1.58029	-0.0120638	-0.137554	0.000573049	1.57807	
2208	2	4220	0.018975	0.08	0.5	4.96756e-11	-1.55275e-08	-5.55585e-21	2.32645e-09	2.15615e-09	-7.50152e-09	3.71365e-11	1.70345e-09	-7.94928e-12	0.0100567	-0.0174527	-1.57754	0.00299949	0.137587	-0.000642057	1.57831	
2208	3	4283	0.0169625	0.08	0.5	4.49936e-11	-1.552e-08	-5.6386e-21	2.32645e-09	2.14769e-09	-7.50764e-09	-1.49361e-10	1.70305e-09	-7.09489e-12	0.00829	-0.020587	-1.58029	-0.0120638	0.137554	-0.000573049	1.57807	
2271	6	4283	0.0169625	0.08	0.5	4.49936e-11	-1.552e-08	-5.6386e-21	2.3845e-09	2.14769e-09	-7.50764e-09	3.57194e-11	-1.70305e-09	7.09489e-12	0.0247018	-0.0135534	-1.57326	0.00288503	-0.137554	0.000573049	1.57804	
2271	7	4346	0.01495	0.08	0.5	4.01948e-11	-1.5513e-08	-5.72545e-21	2.3845e-09	2.13557e-09	-7.51533e-09	-1.92657e-10	-1.70269e-09	6.2405e-12	0.0223022	-0.0179101	-1.5769	-0.0155608	-0.137525	0.000504041	1.57757	
2272	2	4283	0.0169625	0.08	0.5	4.49936e-11	-1.552e-08	-5.6386e-21	2.3845e-09	2.14769e-09	-7.50764e-09	3.57194e-11	1.70305e-09	-7.09489e-12	0.0247018	-0.0135534	-1.57326	0.00288503	0.137554	-0.000573049	1.57804	
2272	3	4346	0.01495	0.08	0.5	4.01948e-11	-1.5513e-08	-5.72545e-21	2.3845e-09	2.13557e-09	-7.51533e-09	-1.92657e-10	1.70269e-09	-6.2405e-12	0.0223022	-0.0179101	-1.5769	-0.0155608	0.137525	-0.000504041	1.57757	
2335	6	4346	0.01495	0.08	0.5	4.01948e-11	-1.5513e-08	-5.72545e-21	2.46184e-09	2.13557e-09	-7.51533e-09	4.12795e-11	-1.70269e-09	6.2405e-12	0.0441643	-0.00854067	-1.56753	0.00333411	-0.137525	0.000504041	1.57753	
2335	7	4409	0.0129375	0.08	0.5	3.52404e-11	-1.55064e-08	-5.81522e-21	2.46184e-09	2.1198e-09	-7.52459e-09	-2.43137e-10	-1.70238e-09	5.38612e-12	0.0411319	-0.0141206	-1.57206	-0.019638	-0.1375	0.000435033	1.57689	
2336	2	4346	0.01495	0.08	0.5	4.01948e-11	-1.5513e-08	-5.72545e-21	2.46184e-09	2.13557e-09	-7.51533e-09	4.12795e-11	1.70269e-09	-6.2405e-12	0.0441643	-0.00854067	-1.56753	0.00333411	0.137525	-0.000504041	1.57753	
2336	3	4409	0.0129375	0.08	0.5	3.52404e-11	-1.55064e-08	-5.81522e-21	2.46184e-09	2.1198e-09	-7.52459e-09	-2.43137e-10	1.70238e-09	-5.38612e-12	0.0411319	-0.0141206	-1.57206	-0.019638	0.1375	-0.000435033	1.57689	
2399	6	4409	0.0129375	0.08	0.5	3.52404e-11	-1.55064e-08	-5.81522e-21	2.55858e-09	2.1198e-09	-7.52459e-09	5.40127e-11	-1.70238e-09	5.38612e-12	0.0684804	-0.00239981	-1.56034	0.00436256	-0.1375	0.000435033	1.57685	
2399	7	4472	0.010925	0.08	0.5	3.00912e-11	-1.55004e-08	-5.90865e-21	2.55858e-09	2.10019e-09	-7.53536e-09	-3.00749e-10	-1.70212e-09	4.53173e-12	0.0647996	-0.00924786	-1.56576	-0.0242913	-0.137479	0.000366024	1.57605	
2400	2	4409	0.0129375	0.08	0.5	3.52404e-11	-1.55064e-08	-5.81522e-21	2.55858e-09	2.1198e-09	-7.52459e-09	5.40127e-11	1.70238e-09	-5.38612e-12	0.0684804	-0.00239981	-1.56034	0.00436256	0.1375	-0.000435033	1.57685	
2400	3	4472	0.010925	0.08	0.5	3.00912e-11	-1.55004e-08	-5.90865e-21	2.55858e-09	2.10019e-09	-7.53536e-09	-3.00749e-10	1.70212e-09	-4.53173e-12	0.0647996	-0.00924786	-1.56576	-0.0242913	0.137479	-0.000366024	1.57605	
2463	6	4472	0.010925	0.08	0.5	3.00912e-11	-1.55004e-08	-5.90865e-21	2.6743e-09	2.10019e-09	-7.53536e-09	7.85441e-11	-1.70212e-09	4.53173e-12	0.0975134	0.00477233	-1.55174	0.00634395	-0.137479	0.000366024	1.57602	
2463	7	4535	0.0089125	0.08	0.5	2.47092e-11	-1.54951e-08	-6.00489e-21	2.6743e-09	2.07216e-09	-7.54741e-09	-3.58821e-10	-1.7019e-09	3.67733e-12	0.0926571	-0.00461258	-1.55854	-0.0289817	-0.137461	0.000297015	1.57437	
2464	2	4472	0.010925	0.08	0.5	3.00912e-11	-1.55004e-08	-5.90865e-21	2.6743e-09	2.10019e-09	-7.53536e-09	7.85441e-11	1.70212e-09	-4.53173e-12	0.0975134	0.00477233	-1.55174	0.00634395	0.137479	-0.000366024	1.57602	
2464	3	4535	0.0089125	0.08	0.5	2.47092e-11	-1.54951e-08	-6.00489e-21	2.6743e-09	2.07216e-09	-7.54741e-09	-3.58821e-10	1.7019e-09	-3.67733e-12	0.0926571	-0.00461258	-1.55854	-0.0289817	0.137461	-0.000297015	1.57437	
2527	6	4535	0.0089125	0.08	0.5	2.47092e-11	-1.54951e-08	-6.00489e-21	2.79503e-09	2.07216e-09	-7.54741e-09	1.26414e-10	-1.7019e-09	3.67733e-12	0.126785	0.0100138	-1.54392	0.0102103	-0.137461	0.000297015	1.57433	
2527	7	560	0.0069	0.08	0.5	1.90842e-11	-1.54909e-08	-6.10491e-21	2.79503e-09	2.02782e-09	-7.56001e-09	-3.79825e-10	-1.70172e-09	2.82298e-12	0.119886	-0.00404816	-1.55285	-0.0306782	-0.137447	0.00022801	1.57034	
2528	2	4535	0.0089125	0.08	0.5	2.47092e-11	-1.54951e-08	-6.00489e-21	2.79503e-09	2.07216e-09	-7.54741e-09	1.26414e-10	1.7019e-09	-3.67733e-12	0.126785	0.0100138	-1.54392	0.0102103	0.137461	-0.000297015	1.57433	
2528	3	560	0.0069	0.08	0.5	1.90842e-11	-1.54909e-08	-6.10491e-21	2.79503e-09	2.02782e-09	-7.56001e-09	-3.79825e-10	1.70172e-09	-2.82298e-12	0.119886	-0.00404816	-1.55285	-0.0306782	0.137447	-0.00022801	1.57034	
