%element	local	global	x	y	z	dx	dy	dz	e11	e22	e33	e12	e23	e13	s11	s22	s33	s12	s23	s13	von
31	16	230	-0.023	0.0774	0.5	-4.9734e-11	-1.5793e-08	0	2.10394e-09	2.10399e-09	-7.0138e-09	2.35895e-12	-3.27454e-13	-1.44952e-12	-7.43503e-05	-6.57645e-05	-1.47294	0.000190531	-2.64482e-05	-0.000117077	1.47287	
31	19	3046	-0.01978	0.0774	0.5	-4.29563e-11	-1.57796e-08	0	2.10583e-09	2.10563e-09	-7.0196e-09	4.54391e-11	-3.36561e-13	-5.66169e-13	-4.54148e-05	-7.84954e-05	-1.47415	0.00367008	-2.71838e-05	-4.5729e-05	1.47409	
31	25	3047	-0.02139	0.0774	0.5	-4.63459e-11	-1.57862e-08	0	2.10489e-09	2.10472e-09	-7.0162e-09	2.00082e-11	-3.3797e-13	-9.05126e-13	-8.75717e-06	-3.47052e-05	-1.47341	0.00161605	-2.72975e-05	-7.31063e-05	1.47338	
63	16	3046	-0.01978	0.0774	0.5	-4.29563e-11	-1.57796e-08	0	2.10585e-09	2.10563e-09	-7.0196e-09	5.02554e-11	-3.36561e-13	-5.66169e-13	-4.03044e-05	-7.63052e-05	-1.47415	0.00405909	-2.71838e-05	-4.5729e-05	1.47409	
63	19	3048	-0.01656	0.0774	0.5	-3.61672e-11	-1.57669e-08	0	2.11095e-09	2.10765e-09	-7.02945e-09	9.34215e-11	-3.28243e-13	-2.29504e-13	0.00045456	-7.87304e-05	-1.47607	0.00754558	-2.65119e-05	-1.85368e-05	1.47605	
63	25	3049	-0.01817	0.0774	0.5	-3.95638e-11	-1.57732e-08	0	2.1084e-09	2.10655e-09	-7.02402e-09	6.01341e-11	-3.3271e-13	-3.57894e-13	0.000257587	-4.16709e-05	-1.47498	0.00485698	-2.68728e-05	-2.89068e-05	1.47496	
95	16	3048	-0.01656	0.0774	0.5	-3.61672e-11	-1.57669e-08	0	2.11097e-09	2.10765e-09	-7.02945e-09	9.82499e-11	-3.28243e-13	-2.29504e-13	0.000458355	-7.71043e-05	-1.47607	0.00793557	-2.65119e-05	-1.85368e-05	1.47606	
95	19	3050	-0.01334	0.0774	0.5	-2.9357e-11	-1.57552e-08	0	2.11898e-09	2.11017e-09	-7.04336e-09	1.41422e-10	-3.17026e-13	-1.06261e-13	0.00134385	-7.83293e-05	-1.47872	0.0114226	-2.56059e-05	-8.58261e-06	1.47878	
95	25	3051	-0.01495	0.0774	0.5	-3.27654e-11	-1.57609e-08	0	2.11497e-09	2.10881e-09	-7.0359e-09	1.00293e-10	-3.23621e-13	-1.5134e-13	0.000950834	-4.35616e-05	-1.47727	0.00810062	-2.61386e-05	-1.22236e-05	1.47729	
127	16	3050	-0.01334	0.0774	0.5	-2.9357e-11	-1.57552e-08	0	2.11881e-09	2.11017e-09	-7.04336e-09	1.46238e-10	-3.17026e-13	-1.06261e-13	0.00129847	-9.77763e-05	-1.47874	0.0118115	-2.56059e-05	-8.58261e-06	1.47879	
127	19	3052	-0.01012	0.0774	0.5	-2.25166e-11	-1.5745e-08	0	2.12989e-09	2.11246e-09	-7.0613e-09	1.89354e-10	-2.82388e-13	-7.99222e-14	0.00253371	-0.000282577	-1.4822	0.0152939	-2.28082e-05	-6.45526e-06	1.48215	
127	25	3053	-0.01173	0.0774	0.5	-2.59413e-11	-1.57499e-08	0	2.12435e-09	2.11154e-09	-7.05183e-09	1.40435e-10	-3.05013e-13	-8.40732e-14	0.00200461	-6.50511e-05	-1.4803	0.0113428	-2.46356e-05	-6.79053e-06	1.48037	
159	16	3052	-0.01012	0.0774	0.5	-2.25166e-11	-1.5745e-08	0	2.1225e-09	2.11246e-09	-7.0613e-09	1.9408e-10	-2.82388e-13	-7.99222e-14	0.00044262	-0.00117876	-1.48309	0.0156757	-2.28082e-05	-6.45526e-06	1.48216	
159	19	240	-0.0069	0.0774	0.5	-1.56059e-11	-1.57369e-08	0	2.16988e-09	2.08782e-09	-7.08316e-09	2.36494e-10	-1.57199e-13	-1.16537e-13	0.00820308	-0.0050519	-1.48652	0.0191015	-1.26968e-05	-9.41257e-06	1.48187	
159	25	3054	-0.00851	0.0774	0.5	-1.90803e-11	-1.57406e-08	0	2.14619e-09	2.10776e-09	-7.07179e-09	1.80319e-10	-2.36216e-13	-9.34734e-14	0.00529951	-0.000907318	-1.48376	0.0145642	-1.90789e-05	-7.54977e-06	1.48307	
191	16	4252	0.00414	0.0774	0.5	9.41984e-12	-1.57326e-08	0	2.27447e-09	2.02479e-09	-7.10235e-09	-8.88517e-11	-5.48343e-14	1.14039e-13	0.0278081	-0.0125248	-1.48691	-0.00717648	-4.42893e-06	9.21083e-06	1.47471	
191	19	511	0.0069	0.0774	0.5	1.55818e-11	-1.5737e-08	0	2.19073e-09	2.08791e-09	-7.08317e-09	-2.03543e-10	-2.10893e-13	8.76245e-14	0.014107	-0.00250087	-1.48398	-0.01644	-1.70336e-05	7.07737e-06	1.4818	
191	25	4253	0.00552	0.0774	0.5	1.25297e-11	-1.57345e-08	0	2.2326e-09	2.04791e-09	-7.09308e-09	-1.6122e-10	-1.4278e-13	1.03432e-13	0.0198964	-0.00993773	-1.48656	-0.0130216	-1.15322e-05	8.35411e-06	1.47694	
223	16	4254	0.00138	0.0774	0.5	3.13986e-12	-1.57308e-08	0	2.28516e-09	2.06072e-09	-7.11498e-09	2.64595e-11	1.01755e-13	5.68783e-14	0.0336538	-0.00260171	-1.48483	0.00213712	8.21867e-06	4.59401e-06	1.48246	
223	19	4252	0.00414	0.0774	0.5	9.41984e-12	-1.57326e-08	0	2.26555e-09	2.02479e-09	-7.10235e-09	-6.89925e-11	-5.48343e-14	1.14039e-13	0.0252876	-0.013605	-1.48799	-0.00557247	-4.42893e-06	9.21083e-06	1.47467	
223	25	4255	0.00276	0.0774	0.5	6.28662e-12	-1.57314e-08	0	2.27536e-09	2.04135e-09	-7.10999e-09	-3.53776e-11	3.69677e-14	9.28397e-14	0.0291405	-0.00866056	-1.48695	-0.00285742	2.98585e-06	7.49859e-06	1.47854	
255	16	4256	-0.00138	0.0774	0.5	-3.16434e-12	-1.57307e-08	0	2.28292e-09	2.062e-09	-7.11499e-09	-2.01703e-12	1.1142e-13	-5.26602e-14	0.0331745	-0.00251257	-1.48495	-0.000162914	8.99934e-06	-4.25332e-06	1.48265	
255	19	4254	0.00138	0.0774	0.5	3.13986e-12	-1.57308e-08	0	2.28534e-09	2.06072e-09	-7.11498e-09	4.36979e-12	1.01755e-13	5.68783e-14	0.033705	-0.00257976	-1.48481	0.000352944	8.21867e-06	4.59401e-06	1.48245	
255	25	4257	0	0.0774	0.5	-1.30719e-14	-1.57305e-08	0	2.28413e-09	2.06843e-09	-7.11673e-09	8.70045e-13	1.33237e-13	-2.90033e-15	0.0340856	-0.000758015	-1.48451	7.02729e-05	1.07614e-05	-2.34257e-07	1.48396	
287	16	4258	-0.00414	0.0774	0.5	-9.4431e-12	-1.57326e-08	0	2.2645e-09	2.02463e-09	-7.10235e-09	6.83507e-11	-4.53764e-15	-1.17753e-13	0.0249711	-0.0137781	-1.48814	0.00552063	-3.66502e-07	-9.5108e-06	1.47464	
287	19	4256	-0.00138	0.0774	0.5	-3.16434e-12	-1.57307e-08	0	2.28533e-09	2.062e-09	-7.11499e-09	-2.509e-11	1.1142e-13	-5.26602e-14	0.033856	-0.00222048	-1.48466	-0.0020265	8.99934e-06	-4.25332e-06	1.48266	
287	25	4259	-0.00276	0.0774	0.5	-6.3109e-12	-1.57314e-08	0	2.27492e-09	2.04232e-09	-7.10999e-09	3.47637e-11	6.44298e-14	-9.35841e-14	0.0291337	-0.00843936	-1.48689	0.00280784	5.20394e-06	-7.55872e-06	1.4787	
319	16	240	-0.0069	0.0774	0.5	-1.56059e-11	-1.57369e-08	0	2.19099e-09	2.08782e-09	-7.08316e-09	2.0369e-10	-1.57199e-13	-1.16537e-13	0.0141711	-0.00249416	-1.48396	0.0164518	-1.26968e-05	-9.41257e-06	1.48179	
319	19	4258	-0.00414	0.0774	0.5	-9.4431e-12	-1.57326e-08	0	2.27479e-09	2.02463e-09	-7.10235e-09	8.71076e-11	-4.53764e-15	-1.17753e-13	0.0278795	-0.0125316	-1.48689	0.00703561	-3.66502e-07	-9.5108e-06	1.47469	
319	25	4260	-0.00552	0.0774	0.5	-1.25534e-11	-1.57344e-08	0	2.23289e-09	2.04741e-09	-7.09307e-09	1.60615e-10	-7.95958e-14	-1.23928e-13	0.0199195	-0.0100422	-1.48658	0.0129728	-6.42889e-06	-1.00096e-05	1.47686	
351	17	5458	0.01978	0.0774	0.5	4.29324e-11	-1.57797e-08	0	2.10583e-09	2.10563e-09	-7.01961e-09	-4.54392e-11	-3.37281e-13	5.64047e-13	-4.52641e-05	-7.85071e-05	-1.47415	-0.00367009	-2.72419e-05	4.55577e-05	1.47409	
351	18	647	0.023	0.0774	0.5	4.97101e-11	-1.57931e-08	0	2.10394e-09	2.104e-09	-7.01381e-09	-2.35903e-12	-3.27784e-13	1.44789e-12	-7.43851e-05	-6.57895e-05	-1.47294	-0.000190537	-2.64749e-05	0.000116945	1.47288	
351	25	5459	0.02139	0.0774	0.5	4.6322e-11	-1.57863e-08	0	2.10489e-09	2.10473e-09	-7.0162e-09	-2.00082e-11	-3.38485e-13	9.03319e-13	-8.68191e-06	-3.47095e-05	-1.47342	-0.00161605	-2.73392e-05	7.29603e-05	1.47338	
383	17	5460	0.01656	0.0774	0.5	3.61433e-11	-1.5767e-08	0	2.11096e-09	2.10765e-09	-7.02946e-09	-9.34213e-11	-3.29917e-13	2.26043e-13	0.000455098	-7.87299e-05	-1.47607	-0.00754556	-2.66471e-05	1.82573e-05	1.47605	
383	18	5458	0.01978	0.0774	0.5	4.29324e-11	-1.57797e-08	0	2.10585e-09	2.10563e-09	-7.01961e-09	-5.02556e-11	-3.37281e-13	5.64047e-13	-4.0157e-05	-7.63183e-05	-1.47415	-0.00405911	-2.72419e-05	4.55577e-05	1.47409	
383	25	5461	0.01817	0.0774	0.5	3.95399e-11	-1.57732e-08	0	2.1084e-09	2.10655e-09	-7.02403e-09	-6.01339e-11	-3.33755e-13	3.55255e-13	0.000257944	-4.16607e-05	-1.47498	-0.00485697	-2.69572e-05	2.86936e-05	1.47496	
415	17	5462	0.01334	0.0774	0.5	2.93331e-11	-1.57552e-08	0	2.11898e-09	2.11017e-09	-7.04336e-09	-1.4142e-10	-3.22291e-13	9.95919e-14	0.00134517	-7.83655e-05	-1.47873	-0.0114223	-2.60312e-05	8.04396e-06	1.47878	
415	18	5460	0.01656	0.0774	0.5	3.61433e-11	-1.5767e-08	0	2.11097e-09	2.10765e-09	-7.02946e-09	-9.82498e-11	-3.29917e-13	2.26043e-13	0.000458849	-7.71222e-05	-1.47607	-0.00793556	-2.66471e-05	1.82573e-05	1.47606	
415	25	5463	0.01495	0.0774	0.5	3.27415e-11	-1.57609e-08	0	2.11498e-09	2.10881e-09	-7.0359e-09	-1.00292e-10	-3.26528e-13	1.4661e-13	0.000951771	-4.35363e-05	-1.47727	-0.0081005	-2.63734e-05	1.18416e-05	1.47729	
447	17	5464	0.01012	0.0774	0.5	2.24927e-11	-1.5745e-08	0	2.12992e-09	2.11245e-09	-7.06131e-09	-1.89335e-10	-3.00136e-13	6.58091e-14	0.00253813	-0.000282619	-1.4822	-0.0152925	-2.42417e-05	5.31535e-06	1.48215	
447	18	5462	0.01334	0.0774	0.5	2.93331e-11	-1.57552e-08	0	2.11882e-09	2.11017e-09	-7.04336e-09	-1.46236e-10	-3.22291e-13	9.95919e-14	0.00129947	-9.79533e-05	-1.47875	-0.0118114	-2.60312e-05	8.04396e-06	1.47879	
447	25	5465	0.01173	0.0774	0.5	2.59173e-11	-1.57499e-08	0	2.12437e-09	2.11154e-09	-7.05183e-09	-1.40427e-10	-3.14801e-13	7.44507e-14	0.00200735	-6.50808e-05	-1.4803	-0.0113421	-2.54263e-05	6.01332e-06	1.48037	
479	17	511	0.0069	0.0774	0.5	1.55818e-11	-1.5737e-08	0	2.16991e-09	2.08791e-09	-7.08317e-09	-2.36387e-10	-2.10893e-13	8.76245e-14	0.00822163	-0.00502315	-1.48651	-0.0190928	-1.70336e-05	7.07737e-06	1.48188	
479	18	5464	0.01012	0.0774	0.5	2.24927e-11	-1.5745e-08	0	2.12254e-09	2.11245e-09	-7.06131e-09	-1.94075e-10	-3.00136e-13	6.58091e-14	0.000453804	-0.0011759	-1.48309	-0.0156753	-2.42417e-05	5.31535e-06	1.48216	
479	25	5466	0.00851	0.0774	0.5	1.90563e-11	-1.57406e-08	0	2.14622e-09	2.10776e-09	-7.0718e-09	-1.80275e-10	-2.67865e-13	7.21502e-14	0.00530882	-0.000904417	-1.48376	-0.0145606	-2.16352e-05	5.82751e-06	1.48307	
