%element	local	global	x	y	z	dx	dy	dz	e11	e22	e33	e12	e23	e13	s11	s22	s33	s12	s23	s13	von
655	17	16587	0	0.0156182	0.25	-1.23443e-14	-9.58632e-09	-8.47319e-10	-4.07143e-10	-1.29587e-10	1.08452e-09	-4.99416e-14	-8.2153e-09	-3.46249e-14	0.000597302	0.0454333	0.241558	-4.03374e-06	-0.663543	-2.79663e-06	1.16634	
655	18	7538	0	0.0102	0.25	-8.67383e-15	-9.5855e-09	-1.03954e-09	-4.889e-10	-1.73381e-10	1.34148e-09	6.68208e-13	-7.64778e-09	-7.14312e-13	0.00331095	0.0542794	0.298987	5.39706e-05	-0.617705	-5.76945e-05	1.09812	
655	25	16589	0	0.0129091	0.25	-1.03644e-14	-9.58594e-09	-9.4308e-10	-4.55197e-10	-1.51484e-10	1.2115e-09	2.62541e-14	-7.93276e-09	-4.32227e-14	-0.000255159	0.0488061	0.268981	2.12052e-06	-0.640723	-3.49106e-06	1.13193	
656	9	16587	0	0.0156182	0.25	-1.23443e-14	-9.58632e-09	-8.47319e-10	-4.07143e-10	-1.29587e-10	1.08446e-09	-4.99416e-14	-8.21366e-09	-3.4644e-14	0.000590305	0.0454263	0.241542	-4.03374e-06	-0.663411	-2.79817e-06	1.16611	
656	11	7538	0	0.0102	0.25	-8.67383e-15	-9.5855e-09	-1.03954e-09	-4.889e-10	-1.73381e-10	1.34093e-09	6.68208e-13	-7.64574e-09	-7.11815e-13	0.00324508	0.0542135	0.298834	5.39706e-05	-0.61754	-5.74927e-05	1.09782	
656	20	16589	0	0.0129091	0.25	-1.03644e-14	-9.58594e-09	-9.4308e-10	-5.9488e-10	-2.91174e-10	1.67706e-09	2.61788e-14	-7.43721e-09	-4.05024e-14	-0.000262109	0.0487981	0.366744	2.11444e-06	-0.600697	-3.27135e-06	1.08849	
687	17	16713	0	0.0210364	0.25	-1.55954e-14	-9.58694e-09	-6.57076e-10	-3.16333e-10	-9.66432e-11	8.35713e-10	-5.88762e-15	-8.52284e-09	-1.749e-15	0.000116259	0.0356046	0.186216	-4.75539e-07	-0.688383	-1.41266e-07	1.20205	
687	18	16587	0	0.0156182	0.25	-1.23443e-14	-9.58632e-09	-8.47319e-10	-4.07143e-10	-1.32918e-10	1.08452e-09	7.94131e-14	-8.16063e-09	-3.46249e-14	0.000193715	0.0444916	0.241154	6.41413e-06	-0.659128	-2.79663e-06	1.15888	
687	25	16715	0	0.0183273	0.25	-1.40441e-14	-9.58665e-09	-7.51979e-10	-3.61906e-10	-1.14781e-10	9.59244e-10	3.12861e-15	-8.34297e-09	-2.17306e-15	1.86438e-06	0.0399222	0.213419	2.52696e-07	-0.673856	-1.75516e-07	1.18031	
688	9	16713	0	0.0210364	0.25	-1.55954e-14	-9.58694e-09	-6.57076e-10	-3.16333e-10	-9.66432e-11	8.35674e-10	-5.88762e-15	-8.52128e-09	-1.74211e-15	0.000111527	0.0355999	0.186205	-4.75539e-07	-0.688257	-1.40709e-07	1.20183	
688	11	16587	0	0.0156182	0.25	-1.23443e-14	-9.58632e-09	-8.47319e-10	-4.07143e-10	-1.32918e-10	1.08446e-09	7.94131e-14	-8.15899e-09	-3.4644e-14	0.000186718	0.0444846	0.241138	6.41413e-06	-0.658995	-2.79817e-06	1.15865	
688	20	16715	0	0.0183273	0.25	-1.40441e-14	-9.58665e-09	-7.51979e-10	-4.73654e-10	-2.26531e-10	1.33169e-09	3.11975e-15	-7.82178e-09	-2.03172e-15	-4.12385e-06	0.0399157	0.291628	2.5198e-07	-0.631759	-1.641e-07	1.12317	
719	17	16839	0	0.0264545	0.25	-1.80657e-14	-9.58738e-09	-4.68303e-10	-2.2542e-10	-6.65505e-11	5.92784e-10	-6.69217e-16	-8.77831e-09	-1.54416e-16	3.07059e-05	0.0256942	0.132202	-5.40522e-08	-0.709017	-1.24721e-08	1.2328	
719	18	16713	0	0.0210364	0.25	-1.55954e-14	-9.58694e-09	-6.57076e-10	-3.16333e-10	-9.75078e-11	8.35713e-10	9.50435e-15	-8.51652e-09	-1.749e-15	1.15163e-05	0.0353602	0.186111	7.67659e-07	-0.687872	-1.41266e-07	1.20119	
719	25	16841	0	0.0237455	0.25	-1.69306e-14	-9.58718e-09	-5.62531e-10	-2.70678e-10	-8.19566e-11	7.13619e-10	3.79858e-16	-8.64865e-09	-1.7849e-16	9.74615e-06	0.0304955	0.159012	3.06809e-08	-0.698545	-1.44165e-08	1.21691	
720	9	16839	0	0.0264545	0.25	-1.80657e-14	-9.58738e-09	-4.68303e-10	-2.2542e-10	-6.65505e-11	5.92755e-10	-6.69217e-16	-8.77677e-09	-1.56777e-16	2.71863e-05	0.0256907	0.132194	-5.40522e-08	-0.708893	-1.26627e-08	1.23258	
720	11	16713	0	0.0210364	0.25	-1.55954e-14	-9.58694e-09	-6.57076e-10	-3.16333e-10	-9.75078e-11	8.35674e-10	9.50435e-15	-8.51496e-09	-1.74211e-15	6.78353e-06	0.0353555	0.1861	7.67659e-07	-0.687747	-1.40709e-07	1.20097	
720	20	16841	0	0.0237455	0.25	-1.69306e-14	-9.58718e-09	-5.62531e-10	-3.54488e-10	-1.65768e-10	9.92951e-10	3.7816e-16	-8.10835e-09	-1.61552e-16	5.25448e-06	0.0304908	0.217668	3.05437e-08	-0.654906	-1.30484e-08	1.14987	
751	17	16965	0	0.0318727	0.25	-1.97141e-14	-9.58767e-09	-2.80566e-10	-1.35033e-10	-3.84778e-11	3.54009e-10	-6.11971e-17	-8.9511e-09	-7.56067e-17	5.50594e-05	0.0156524	0.0790541	-4.94284e-09	-0.722973	-6.1067e-09	1.25388	
751	18	16839	0	0.0264545	0.25	-1.80657e-14	-9.58738e-09	-4.68303e-10	-2.2542e-10	-6.69311e-11	5.92784e-10	1.15534e-15	-8.77758e-09	-1.54416e-16	-1.53997e-05	0.0255867	0.132156	9.33162e-08	-0.708958	-1.24721e-08	1.2327	
751	25	16967	0	0.0291636	0.25	-1.89929e-14	-9.58755e-09	-3.74331e-10	-1.80096e-10	-5.27044e-11	4.72981e-10	4.86794e-17	-8.86559e-09	-7.7521e-17	6.20286e-06	0.0205849	0.105503	3.9318e-09	-0.716067	-6.26131e-09	1.24325	
752	9	16965	0	0.0318727	0.25	-1.97141e-14	-9.58767e-09	-2.80566e-10	-1.35033e-10	-3.84778e-11	3.53991e-10	-6.11971e-17	-8.94957e-09	-7.99895e-17	5.29233e-05	0.0156503	0.0790491	-4.94284e-09	-0.72285	-6.46069e-09	1.25367	
752	11	16839	0	0.0264545	0.25	-1.80657e-14	-9.58738e-09	-4.68303e-10	-2.2542e-10	-6.69311e-11	5.92755e-10	1.15534e-15	-8.77604e-09	-1.56777e-16	-1.89194e-05	0.0255831	0.132148	9.33162e-08	-0.708834	-1.26627e-08	1.23249	
752	20	16967	0	0.0291636	0.25	-1.89929e-14	-9.58755e-09	-3.74331e-10	-2.3597e-10	-1.08579e-10	6.59202e-10	4.79306e-17	-8.31173e-09	-6.60117e-17	3.22011e-06	0.0205818	0.144608	3.87132e-09	-0.671332	-5.33172e-09	1.16947	
783	17	17091	0	0.0372909	0.25	-2.05364e-14	-9.58781e-09	-9.34532e-11	-4.49747e-11	-1.24143e-11	1.17726e-10	-1.93697e-18	-9.03771e-09	-7.10517e-17	4.49454e-05	0.00530471	0.0263274	-1.56448e-10	-0.729969	-5.73879e-09	1.26452	
783	18	16965	0	0.0318727	0.25	-1.97141e-14	-9.58767e-09	-2.80566e-10	-1.35033e-10	-3.91346e-11	3.54009e-10	1.48979e-16	-8.95103e-09	-7.56067e-17	-2.45186e-05	0.0154667	0.0789745	1.20329e-08	-0.722968	-6.1067e-09	1.25387	
783	25	17093	0	0.0345818	0.25	-2.02285e-14	-9.58776e-09	-1.86958e-10	-8.99401e-11	-2.57745e-11	2.3566e-10	6.94398e-18	-8.99562e-09	-7.13989e-17	3.05177e-06	0.0103683	0.0526	5.6086e-10	-0.726569	-5.76684e-09	1.25918	
784	9	17091	0	0.0372909	0.25	-2.05364e-14	-9.58781e-09	-9.34532e-11	-4.49747e-11	-1.24143e-11	1.1772e-10	-1.93697e-18	-9.03618e-09	-7.5681e-17	4.42315e-05	0.00530399	0.0263258	-1.56448e-10	-0.729845	-6.11269e-09	1.26431	
784	11	16965	0	0.0318727	0.25	-1.97141e-14	-9.58767e-09	-2.80566e-10	-1.35033e-10	-3.91346e-11	3.53991e-10	1.48979e-16	-8.9495e-09	-7.99895e-17	-2.66547e-05	0.0154646	0.0789695	1.20329e-08	-0.722844	-6.46069e-09	1.25366	
784	20	17093	0	0.0345818	0.25	-2.02285e-14	-9.58776e-09	-1.86958e-10	-1.17877e-10	-5.37115e-11	3.28771e-10	6.595e-18	-8.43364e-09	-6.00695e-17	1.55922e-06	0.0103667	0.0721523	5.32673e-10	-0.681178	-4.85177e-09	1.18147	
815	17	17217	0	0.0427091	0.25	-2.05327e-14	-9.58781e-09	9.34524e-11	4.49745e-11	1.30711e-11	-1.17725e-10	-2.08444e-17	-9.03771e-09	-7.10267e-17	3.46958e-05	-0.00511893	-0.0262476	-1.68359e-09	-0.729969	-5.73677e-09	1.26452	
815	18	17091	0	0.0372909	0.25	-2.05364e-14	-9.58781e-09	-9.34532e-11	-4.49747e-11	-1.30717e-11	1.17726e-10	1.80472e-17	-9.03771e-09	-7.10517e-17	-3.46958e-05	0.00511888	0.0262478	1.45765e-09	-0.729969	-5.73879e-09	1.26452	
815	25	17219	0	0.04	0.25	-2.06378e-14	-9.58783e-09	-3.70967e-16	-1.20362e-16	-2.77367e-16	5.58257e-16	-6.06476e-19	-9.03896e-09	-7.07422e-17	5.5364e-12	-2.53569e-08	1.09629e-07	-4.89846e-11	-0.730069	-5.7138e-09	1.26452	
816	9	17217	0	0.0427091	0.25	-2.05327e-14	-9.58781e-09	9.34524e-11	4.49745e-11	1.30711e-11	-1.17719e-10	-2.08444e-17	-9.03618e-09	-7.56625e-17	3.54097e-05	-0.00511822	-0.0262459	-1.68359e-09	-0.729845	-6.1112e-09	1.26431	
816	11	17091	0	0.0372909	0.25	-2.05364e-14	-9.58781e-09	-9.34532e-11	-4.49747e-11	-1.30717e-11	1.1772e-10	1.80472e-17	-9.03618e-09	-7.5681e-17	-3.54097e-05	0.00511816	0.0262461	1.45765e-09	-0.729845	-6.11269e-09	1.26431	
816	20	17219	0	0.04	0.25	-2.06378e-14	-9.58783e-09	-3.70967e-16	-1.70845e-16	-3.27851e-16	7.26513e-16	-5.72594e-19	-8.47426e-09	-5.94359e-17	2.9157e-12	-2.53597e-08	1.44961e-07	-4.6248e-11	-0.68446	-4.80059e-09	1.18552	
847	17	17343	0	0.0481273	0.25	-1.97027e-14	-9.58767e-09	2.80566e-10	1.35033e-10	3.9134e-11	-3.54008e-10	-1.51767e-16	-8.95103e-09	-7.55455e-17	2.45186e-05	-0.0154668	-0.0789743	-1.22581e-08	-0.722968	-6.10175e-09	1.25387	
847	18	17217	0	0.0427091	0.25	-2.05327e-14	-9.58781e-09	9.34524e-11	4.49745e-11	1.24138e-11	-1.17725e-10	-8.69212e-19	-9.03771e-09	-7.10267e-17	-4.49454e-05	-0.00530476	-0.0263272	-7.02056e-11	-0.729969	-5.73677e-09	1.26452	
847	25	17345	0	0.0454182	0.25	-2.02209e-14	-9.58776e-09	1.86957e-10	8.99398e-11	2.57739e-11	-2.35659e-10	-8.15142e-18	-8.99562e-09	-7.13545e-17	-3.05176e-06	-0.0103683	-0.0525997	-6.58384e-10	-0.726569	-5.76324e-09	1.25918	
848	9	17343	0	0.0481273	0.25	-1.97027e-14	-9.58767e-09	2.80566e-10	1.35033e-10	3.9134e-11	-3.5399e-10	-1.51767e-16	-8.9495e-09	-7.99266e-17	2.66548e-05	-0.0154646	-0.0789693	-1.22581e-08	-0.722844	-6.45561e-09	1.25366	
848	11	17217	0	0.0427091	0.25	-2.05327e-14	-9.58781e-09	9.34524e-11	4.49745e-11	1.24138e-11	-1.17719e-10	-8.69212e-19	-9.03618e-09	-7.56625e-17	-4.42314e-05	-0.00530404	-0.0263255	-7.02056e-11	-0.729845	-6.1112e-09	1.26431	
848	20	17345	0	0.0454182	0.25	-2.02209e-14	-9.58776e-09	1.86957e-10	1.17877e-10	5.37109e-11	-3.28769e-10	-7.73934e-18	-8.43364e-09	-6.00255e-17	-1.55921e-06	-0.0103668	-0.072152	-6.25101e-10	-0.681178	-4.84822e-09	1.18147	
879	17	17469	0	0.0535455	0.25	-1.80466e-14	-9.58738e-09	4.68302e-10	2.2542e-10	6.69305e-11	-5.92783e-10	-1.15802e-15	-8.77758e-09	-1.54352e-16	1.53998e-05	-0.0255867	-0.132156	-9.35328e-08	-0.708958	-1.24669e-08	1.2327	
879	18	17343	0	0.0481273	0.25	-1.97027e-14	-9.58767e-09	2.80566e-10	1.35033e-10	3.84772e-11	-3.54008e-10	5.83878e-17	-8.9511e-09	-7.55455e-17	-5.50594e-05	-0.0156525	-0.0790539	4.71593e-09	-0.722974	-6.10175e-09	1.25388	
879	25	17471	0	0.0508364	0.25	-1.89777e-14	-9.58755e-09	3.7433e-10	1.80096e-10	5.27039e-11	-4.72979e-10	-4.98843e-17	-8.86559e-09	-7.74392e-17	-6.20286e-06	-0.020585	-0.105503	-4.02912e-09	-0.716067	-6.25471e-09	1.24325	
880	9	17469	0	0.0535455	0.25	-1.80466e-14	-9.58738e-09	4.68302e-10	2.2542e-10	6.69305e-11	-5.92754e-10	-1.15802e-15	-8.77604e-09	-1.56709e-16	1.89195e-05	-0.0255832	-0.132148	-9.35328e-08	-0.708834	-1.26572e-08	1.23249	
880	11	17343	0	0.0481273	0.25	-1.97027e-14	-9.58767e-09	2.80566e-10	1.35033e-10	3.84772e-11	-3.5399e-10	5.83878e-17	-8.94957e-09	-7.99266e-17	-5.29232e-05	-0.0156503	-0.0790489	4.71593e-09	-0.72285	-6.45561e-09	1.25367	
880	20	17471	0	0.0508364	0.25	-1.89777e-14	-9.58755e-09	3.7433e-10	2.3597e-10	1.08578e-10	-6.59201e-10	-4.90673e-17	-8.31173e-09	-6.5927e-17	-3.22011e-06	-0.0205819	-0.144608	-3.96313e-09	-0.671332	-5.32488e-09	1.16947	
911	17	17595	0	0.0589636	0.25	-1.55684e-14	-9.58694e-09	6.57075e-10	3.16333e-10	9.75072e-11	-8.35712e-10	-9.50615e-15	-8.51652e-09	-1.74972e-15	-1.15166e-05	-0.0353603	-0.186111	-7.67804e-07	-0.687873	-1.41323e-07	1.20119	
911	18	17469	0	0.0535455	0.25	-1.80466e-14	-9.58738e-09	4.68302e-10	2.2542e-10	6.655e-11	-5.92783e-10	6.66344e-16	-8.77831e-09	-1.54352e-16	-3.0706e-05	-0.0256943	-0.132202	5.38201e-08	-0.709017	-1.24669e-08	1.2328	
911	25	17597	0	0.0562545	0.25	-1.69076e-14	-9.58718e-09	5.6253e-10	2.70678e-10	8.1956e-11	-7.13618e-10	-3.81024e-16	-8.64865e-09	-1.78413e-16	-9.74613e-06	-0.0304956	-0.159011	-3.0775e-08	-0.698545	-1.44103e-08	1.21691	
912	9	17595	0	0.0589636	0.25	-1.55684e-14	-9.58694e-09	6.57075e-10	3.16333e-10	9.75072e-11	-8.35673e-10	-9.50615e-15	-8.51496e-09	-1.74282e-15	-6.78388e-06	-0.0353556	-0.1861	-7.67804e-07	-0.687747	-1.40766e-07	1.20097	
912	11	17469	0	0.0535455	0.25	-1.80466e-14	-9.58738e-09	4.68302e-10	2.2542e-10	6.655e-11	-5.92754e-10	6.66344e-16	-8.77677e-09	-1.56709e-16	-2.71863e-05	-0.0256908	-0.132194	5.38201e-08	-0.708893	-1.26572e-08	1.23258	
912	20	17597	0	0.0562545	0.25	-1.69076e-14	-9.58718e-09	5.6253e-10	3.54488e-10	1.65768e-10	-9.92949e-10	-3.79265e-16	-8.10836e-09	-1.61468e-16	-5.25447e-06	-0.0304908	-0.217668	-3.0633e-08	-0.654906	-1.30416e-08	1.14987	
943	17	17721	0	0.0643818	0.25	-1.23091e-14	-9.58632e-09	8.47319e-10	4.07143e-10	1.32918e-10	-1.08452e-09	-7.94075e-14	-8.16063e-09	-3.46424e-14	-0.00019373	-0.0444916	-0.241154	-6.41369e-06	-0.659128	-2.79804e-06	1.15888	
943	18	17595	0	0.0589636	0.25	-1.55684e-14	-9.58694e-09	6.57075e-10	3.16333e-10	9.66426e-11	-8.35712e-10	5.88418e-15	-8.52284e-09	-1.74972e-15	-0.000116262	-0.0356047	-0.186216	4.75261e-07	-0.688383	-1.41323e-07	1.20205	
943	25	17723	0	0.0616727	0.25	-1.40131e-14	-9.58665e-09	7.51979e-10	3.61906e-10	1.1478e-10	-9.59243e-10	-3.12949e-15	-8.34298e-09	-2.17394e-15	-1.8633e-06	-0.0399222	-0.213418	-2.52766e-07	-0.673856	-1.75588e-07	1.18031	
944	9	17721	0	0.0643818	0.25	-1.23091e-14	-9.58632e-09	8.47319e-10	4.07143e-10	1.32918e-10	-1.08446e-09	-7.94075e-14	-8.15899e-09	-3.46614e-14	-0.000186733	-0.0444846	-0.241138	-6.41369e-06	-0.658995	-2.79957e-06	1.15865	
944	11	17595	0	0.0589636	0.25	-1.55684e-14	-9.58694e-09	6.57075e-10	3.16333e-10	9.66426e-11	-8.35673e-10	5.88418e-15	-8.52128e-09	-1.74282e-15	-0.000111529	-0.0356	-0.186205	4.75261e-07	-0.688258	-1.40766e-07	1.20183	
944	20	17723	0	0.0616727	0.25	-1.40131e-14	-9.58665e-09	7.51979e-10	4.73653e-10	2.2653e-10	-1.33169e-09	-3.12056e-15	-7.82178e-09	-2.03252e-15	4.12493e-06	-0.0399157	-0.291628	-2.52045e-07	-0.631759	-1.64165e-07	1.12317	
975	17	5812	0	0.0698	0.25	-8.63011e-15	-9.5855e-09	1.03954e-09	4.889e-10	1.73381e-10	-1.34148e-09	-6.68142e-13	-7.64779e-09	-7.14673e-13	-0.00331112	-0.0542796	-0.298987	-5.39653e-05	-0.617706	-5.77236e-05	1.09812	
975	18	17721	0	0.0643818	0.25	-1.23091e-14	-9.58632e-09	8.47319e-10	4.07143e-10	1.29586e-10	-1.08452e-09	4.99331e-14	-8.2153e-09	-3.46424e-14	-0.000597323	-0.0454334	-0.241558	4.03306e-06	-0.663543	-2.79804e-06	1.16634	
975	25	17817	0	0.0670909	0.25	-1.0325e-14	-9.58594e-09	9.43079e-10	4.55197e-10	1.51484e-10	-1.2115e-09	-2.62525e-14	-7.93276e-09	-4.3244e-14	0.000255175	-0.0488062	-0.268981	-2.1204e-06	-0.640723	-3.49278e-06	1.13193	
976	9	5812	0	0.0698	0.25	-8.63011e-15	-9.5855e-09	1.03954e-09	4.889e-10	1.73381e-10	-1.34093e-09	-6.68142e-13	-7.64574e-09	-7.12175e-13	-0.00324525	-0.0542137	-0.298834	-5.39653e-05	-0.617541	-5.75218e-05	1.09782	
976	11	17721	0	0.0643818	0.25	-1.23091e-14	-9.58632e-09	8.47319e-10	4.07143e-10	1.29586e-10	-1.08446e-09	4.99331e-14	-8.21366e-09	-3.46614e-14	-0.000590326	-0.0454264	-0.241541	4.03306e-06	-0.663411	-2.79957e-06	1.16611	
976	20	17817	0	0.0670909	0.25	-1.0325e-14	-9.58594e-09	9.43079e-10	5.9488e-10	2.91173e-10	-1.67706e-09	-2.61771e-14	-7.43721e-09	-4.05223e-14	0.000262125	-0.0487982	-0.366744	-2.11431e-06	-0.600698	-3.27296e-06	1.08849	
1839	13	5812	0	0.0698	0.25	-8.63011e-15	-9.5855e-09	1.03954e-09	4.889e-10	1.57312e-10	-1.34148e-09	6.67043e-12	-7.98093e-09	-7.14673e-13	-0.00525792	-0.0588221	-0.300934	0.000538766	-0.644614	-5.77236e-05	1.14308	
1840	7	5812	0	0.0698	0.25	-8.63011e-15	-9.5855e-09	1.03954e-09	4.889e-10	1.57312e-10	-1.34093e-09	6.67043e-12	-7.97889e-09	-7.12175e-13	-0.00519205	-0.0587563	-0.30078	0.000538766	-0.644449	-5.75218e-05	1.14278	
2127	12	7538	0	0.0102	0.25	-8.67383e-15	-9.5855e-09	-1.03954e-09	-4.889e-10	-1.57464e-10	1.34148e-09	-6.66914e-12	-7.98087e-09	-7.14312e-13	0.00523939	0.0587791	0.300916	-0.000538661	-0.644609	-5.76945e-05	1.14308	
2128	6	7538	0	0.0102	0.25	-8.67383e-15	-9.5855e-09	-1.03954e-09	-4.889e-10	-1.57464e-10	1.34093e-09	-6.66914e-12	-7.97883e-09	-7.11815e-13	0.00517352	0.0587132	0.300762	-0.000538661	-0.644444	-5.74927e-05	1.14278	
