%element	local	global	x	y	z	dx	dy	dz	e11	e22	e33	e12	e23	e13	s11	s22	s33	s12	s23	s13	von
0	8	81	-0.023	0.0774	0	0	0	0	0	0	1.51907e-08	0	1.06579e-09	1.11689e-08	1.84041	1.84041	4.29429	0	0.0860831	0.902101	2.91292	
0	13	1688	-0.01978	0.0774	0	0	0	0	0	0	1.18409e-08	0	-1.2663e-09	8.59318e-09	1.43457	1.43457	3.34734	0	-0.102278	0.694064	2.2661	
0	20	1689	-0.02139	0.0774	0	0	0	0	-3.10753e-09	-2.80305e-09	1.21843e-08	-4.67606e-11	-1.66946e-09	2.31844e-10	0.2581	0.307285	2.72832	-0.00377682	-0.134841	0.0187259	2.43274	
32	8	1688	-0.01978	0.0774	0	0	0	0	0	0	1.18409e-08	0	-1.2663e-09	8.59318e-09	1.43457	1.43457	3.34734	0	-0.102278	0.694064	2.2661	
32	13	1690	-0.01656	0.0774	0	0	0	0	0	0	1.088e-08	0	-2.66604e-09	6.88895e-09	1.31815	1.31815	3.07569	0	-0.215334	0.556415	2.03883	
32	20	1691	-0.01817	0.0774	0	0	0	0	-3.72437e-09	-3.16367e-09	1.36395e-08	-1.82634e-10	-1.91529e-09	4.51673e-10	0.216329	0.306905	3.02126	-0.0147512	-0.154697	0.0364813	2.72915	
64	8	1690	-0.01656	0.0774	0	0	0	0	0	0	1.088e-08	0	-2.66604e-09	6.88895e-09	1.31815	1.31815	3.07569	0	-0.215334	0.556415	2.03883	
64	13	1692	-0.01334	0.0774	0	0	0	0	0	0	1.07291e-08	0	-3.9173e-09	5.65698e-09	1.29987	1.29987	3.03304	0	-0.316398	0.45691	1.98254	
64	20	1693	-0.01495	0.0774	0	0	0	0	-3.75264e-09	-3.39403e-09	1.40287e-08	-3.1846e-10	-2.47101e-09	1.21327e-09	0.227583	0.285512	3.09995	-0.0257218	-0.199582	0.0979952	2.8413	
96	8	1692	-0.01334	0.0774	0	0	0	0	0	0	1.07291e-08	0	-3.9173e-09	5.65698e-09	1.29987	1.29987	3.03304	0	-0.316398	0.45691	1.98254	
96	13	1694	-0.01012	0.0774	0	0	0	0	0	0	1.10386e-08	0	-5.52048e-09	4.66724e-09	1.33737	1.33737	3.12053	0	-0.445885	0.376969	2.04998	
96	20	1695	-0.01173	0.0774	0	0	0	0	-3.69527e-09	-3.53563e-09	1.42587e-08	-5.13202e-10	-2.95412e-09	1.80565e-09	0.254518	0.280306	3.15477	-0.041451	-0.238602	0.145841	2.91593	
128	8	1694	-0.01012	0.0774	0	0	0	0	0	0	1.10386e-08	0	-5.52048e-09	4.66724e-09	1.33737	1.33737	3.12053	0	-0.445885	0.376969	2.04998	
128	13	91	-0.0069	0.0774	0	0	0	0	0	0	1.18314e-08	0	-7.73411e-09	3.72677e-09	1.43342	1.43342	3.34465	0	-0.624678	0.301009	2.25727	
128	20	1696	-0.00851	0.0774	0	0	0	0	-3.69773e-09	-3.58962e-09	1.44996e-08	-6.73029e-10	-3.21987e-09	2.37433e-09	0.276467	0.29393	3.21604	-0.05436	-0.260067	0.191772	2.97673	
160	8	1706	0.00414	0.0774	0	0	0	0	0	0	1.28149e-08	0	-9.79986e-09	-2.60616e-09	1.55257	1.55257	3.62267	0	-0.791527	-0.210498	2.50954	
160	13	111	0.0069	0.0774	0	0	0	0	0	0	1.18314e-08	0	-7.73277e-09	-3.72681e-09	1.43341	1.43341	3.34463	0	-0.62457	-0.301012	2.25718	
160	20	1707	0.00552	0.0774	0	0	0	0	-3.8067e-09	-3.47624e-09	1.46747e-08	5.44478e-10	-3.77231e-09	-2.58195e-09	0.280615	0.333996	3.26608	0.0439771	-0.304687	-0.208542	3.00221	
192	8	1708	0.00138	0.0774	0	0	0	0	0	0	1.35563e-08	0	-1.11508e-08	-9.56067e-10	1.64239	1.64239	3.83225	0	-0.900643	-0.0772208	2.692	
192	13	1706	0.00414	0.0774	0	0	0	0	0	0	1.28149e-08	0	-9.79986e-09	-2.60616e-09	1.55257	1.55257	3.62267	0	-0.791527	-0.210498	2.50954	
192	20	1709	0.00276	0.0774	0	0	0	0	-3.78842e-09	-3.4756e-09	1.47588e-08	1.82234e-10	-4.66201e-09	-1.7416e-09	0.296051	0.346583	3.29214	0.0147189	-0.376547	-0.140668	3.02704	
224	8	1710	-0.00138	0.0774	0	0	0	0	0	0	1.35562e-08	0	-1.1152e-08	9.56186e-10	1.64239	1.64239	3.83224	0	-0.90074	0.0772304	2.69209	
224	13	1708	0.00138	0.0774	0	0	0	0	0	0	1.35563e-08	0	-1.11508e-08	-9.56067e-10	1.64239	1.64239	3.83225	0	-0.900643	-0.0772208	2.692	
224	20	1711	0	0.0774	0	0	0	0	-3.76537e-09	-3.52564e-09	1.47861e-08	-1.42297e-12	-4.96043e-09	4.71535e-13	0.299801	0.338528	3.29657	-0.000114932	-0.40065	3.80855e-05	3.03847	
256	8	1712	-0.00414	0.0774	0	0	0	0	0	0	1.28149e-08	0	-9.80102e-09	2.60593e-09	1.55257	1.55257	3.62267	0	-0.791621	0.210479	2.50962	
256	13	1710	-0.00138	0.0774	0	0	0	0	0	0	1.35562e-08	0	-1.1152e-08	9.56186e-10	1.64239	1.64239	3.83224	0	-0.90074	0.0772304	2.69209	
256	20	1713	-0.00276	0.0774	0	0	0	0	-3.78754e-09	-3.4778e-09	1.47587e-08	-1.80815e-10	-4.66037e-09	1.74126e-09	0.296013	0.346048	3.29194	-0.0146043	-0.376415	0.14064	3.0273	
288	8	91	-0.0069	0.0774	0	0	0	0	0	0	1.18314e-08	0	-7.73411e-09	3.72677e-09	1.43342	1.43342	3.34465	0	-0.624678	0.301009	2.25727	
288	13	1712	-0.00414	0.0774	0	0	0	0	0	0	1.28149e-08	0	-9.80102e-09	2.60593e-09	1.55257	1.55257	3.62267	0	-0.791621	0.210479	2.50962	
288	20	1714	-0.00552	0.0774	0	0	0	0	-3.80728e-09	-3.47509e-09	1.46746e-08	-5.43532e-10	-3.77232e-09	2.58167e-09	0.280571	0.334232	3.2661	-0.0439006	-0.304688	0.208519	3.002	
320	9	1697	0.01978	0.0774	0	0	0	0	0	0	1.1841e-08	0	-1.2661e-09	-8.59321e-09	1.43458	1.43458	3.34735	0	-0.102262	-0.694067	2.26611	
320	11	101	0.023	0.0774	0	0	0	0	0	0	1.51908e-08	0	1.06583e-09	-1.11689e-08	1.84042	1.84042	4.29432	0	0.086086	-0.902104	2.91294	
320	20	1698	0.02139	0.0774	0	0	0	0	-3.10754e-09	-2.80306e-09	1.21843e-08	4.67448e-11	-1.66931e-09	-2.3185e-10	0.258101	0.307287	2.72833	0.00377554	-0.134829	-0.0187263	2.43275	
352	9	1699	0.01656	0.0774	0	0	0	0	0	0	1.088e-08	0	-2.66567e-09	-6.88898e-09	1.31815	1.31815	3.07569	0	-0.215304	-0.556417	2.03883	
352	11	1697	0.01978	0.0774	0	0	0	0	0	0	1.1841e-08	0	-1.2661e-09	-8.59321e-09	1.43458	1.43458	3.34735	0	-0.102262	-0.694067	2.26611	
352	20	1700	0.01817	0.0774	0	0	0	0	-3.72439e-09	-3.16367e-09	1.36395e-08	1.82575e-10	-1.9151e-09	-4.51697e-10	0.216328	0.306906	3.02126	0.0147465	-0.154681	-0.0364832	2.72915	
384	9	1701	0.01334	0.0774	0	0	0	0	0	0	1.07291e-08	0	-3.91669e-09	-5.65701e-09	1.29987	1.29987	3.03304	0	-0.316348	-0.456913	1.98252	
384	11	1699	0.01656	0.0774	0	0	0	0	0	0	1.088e-08	0	-2.66567e-09	-6.88898e-09	1.31815	1.31815	3.07569	0	-0.215304	-0.556417	2.03883	
384	20	1702	0.01495	0.0774	0	0	0	0	-3.75267e-09	-3.39403e-09	1.40287e-08	3.18343e-10	-2.47075e-09	-1.21331e-09	0.227578	0.285513	3.09995	0.0257123	-0.19956	-0.0979977	2.84131	
416	9	1703	0.01012	0.0774	0	0	0	0	0	0	1.10386e-08	0	-5.51954e-09	-4.66728e-09	1.33737	1.33737	3.12053	0	-0.445809	-0.376973	2.04993	
416	11	1701	0.01334	0.0774	0	0	0	0	0	0	1.07291e-08	0	-3.91669e-09	-5.65701e-09	1.29987	1.29987	3.03304	0	-0.316348	-0.456913	1.98252	
416	20	1704	0.01173	0.0774	0	0	0	0	-3.69533e-09	-3.53561e-09	1.42587e-08	5.12984e-10	-2.95379e-09	-1.80567e-09	0.254506	0.280307	3.15478	0.0414333	-0.238576	-0.145843	2.91593	
448	9	111	0.0069	0.0774	0	0	0	0	0	0	1.18314e-08	0	-7.73277e-09	-3.72681e-09	1.43341	1.43341	3.34463	0	-0.62457	-0.301012	2.25718	
448	11	1703	0.01012	0.0774	0	0	0	0	0	0	1.10386e-08	0	-5.51954e-09	-4.66728e-09	1.33737	1.33737	3.12053	0	-0.445809	-0.376973	2.04993	
448	20	1705	0.00851	0.0774	0	0	0	0	-3.69788e-09	-3.58961e-09	1.44997e-08	6.72611e-10	-3.21954e-09	-2.37435e-09	0.276435	0.293925	3.21604	0.0543263	-0.26004	-0.191775	2.97673	
