# node	x	y	z	stress11	stress22	stress33	stress12	stress23	stress13
#6688
13788		-0.0104302	-0.0233783	1.445050	0.0068938	0.137717	-0.000676808
9168		-0.0109438	-0.024068	1.444030	-0.0048025	0.137758	-0.000741031
1214		0.00485089	0.0219482	1.581620	-0.00491628	0.137672	-0.00079607
8223		0.00536687	0.0226403	1.582650	0.00678002	0.137631	-0.000727065
13789	-0.0209875,	0.0026,	0.500000	]	-0.00791189	-0.0208264	1.446570	0.00687943	-0.137462	0.00129762
9169	-0.0230,	0.0026,	0.500000	]	-0.00842545	-0.0215161	1.445550	-0.00478813	-0.137411	0.00123339
1215		0.00749915	0.0245558	1.583200	-0.00490191	-0.137497	0.00119085
8224		0.00801513	0.0252479	1.584230	0.00676565	-0.137548	0.00125986
#6752
	 stress:
13851		-0.00979452	-0.0216748	1.446740	0.00963678	0.137680	-0.000612586
13788		-0.010946	-0.0235993	1.444830	-0.00317835	0.137717	-0.000676808
		-0.000208012	0.020251	1.580260	-0.00367769	0.137631	-0.000727065
		0.000930184	0.0221623	1.582140	0.00913744	0.137594	-0.00065806
13852	[	-0.018975,	0.0026,	0.500000	]	-0.0072762	-0.0191229	1.448270	0.00962241	-0.137446	0.00234658
13789	[	-0.0209875,	0.0026,	0.500000	]	-0.00842767	-0.0210474	1.446350	-0.00316398	-0.137462	0.00228236
8224		0.00244026	0.0228587	1.581840	-0.00366332	-0.137548	0.00216339
8287		0.00357846	0.0247699	1.583720	0.00912307	-0.137532	0.0022324
#6816
	 stress:
		-0.00882896	-0.0188753	1.449190	0.0129462	0.137647	-0.000548363
13851		-0.0106148	-0.0220264	1.446390	-0.00211713	0.137680	-0.000612586
8286		-0.0100561	0.0174539	1.577430	-0.00299901	0.137594	-0.00065806
8349		-0.00828577	0.0205894	1.580200	0.0120644	0.137561	-0.000589055
13915	[	-0.0169625,	0.0026,	0.5	]		-0.00631064	-0.0163234	1.450720	0.0129319	-0.137417	0.00339555
13852	[	-0.018975,	0.0026,	0.5	]		-0.00809652	-0.0194745	1.447910	-0.00210276	-0.137446	0.00333133
8287	-0.0189750	-0.0074078	0.0200615	1.579010	-0.00298464	-0.137532	0.00320526
8350	-0.0169625	-0.0056375	0.023197	1.581780	0.012050	-0.137503	0.00327427
#6880
	 stress:
		-0.00753154	-0.0149826	1.452400	0.0168239	0.137617	-0.00048414
13914		-0.00994987	-0.0193557	1.448710	-0.0016217	0.137647	-0.000548363
		-0.0247001	0.0135547	1.573170	-0.00288443	0.137561	-0.000589055
		-0.0222968	0.0179127	1.576820	0.0155611	0.137531	-0.00052005
13978	[	-0.01495,	0.0026,	0.5	]	-0.00501321	-0.0124306	1.453920	0.0168095	-0.137386	0.00444452
13915	[	-0.0169625,	0.0026,	0.5	]	-0.00743154	-0.0168038	1.450240	-0.00160733	-0.137417	0.0043803
		-0.0220518	0.0161623	1.574740	-0.00287006	-0.137503	0.00426144
		-0.0196485	0.0205204	1.578400	0.0155468	-0.137472	0.00433045
#6944
	 stress:
		-0.0058799	-0.00998465	1.456380	0.0212821	0.137591	-0.000419917
		-0.00893192	-0.0155827	1.451800	-0.00168915	0.137617	-0.00048414
		-0.044161	0.00854237	1.567450	-0.00333381	0.137531	-0.00052005
		-0.0411244	0.0141251	1.571990	0.0196374	0.137505	-0.000451045
14041	[	-0.0129375,	0.0026,	0.5	]	-0.00336156	-0.00743269	1.457900	0.0212677	-0.13735	0.0054935
13978	[	-0.01495,	0.0026,	0.5	]	-0.00641359	-0.0130308	1.453320	-0.00167478	-0.137386	0.00542928
8413		-0.0415127	0.011150	1.569020	-0.00331944	-0.137472	0.00531361
8476		-0.0384761	0.0167327	1.573560	0.019623	-0.137436	0.00538261
#7008
	 stress:
		-0.00384103	-0.00382868	1.461150	0.026332	0.137569	-0.000355694
		-0.00754706	-0.0106991	1.455660	-0.00231812	0.137591	-0.000419917
		-0.0684701	0.00240544	1.560270	-0.00436224	0.137505	-0.000451045
		-0.0647861	0.00925395	1.565700	0.0242879	0.137483	-0.000382039
14104	[	-0.010925,	0.0026,	0.5	]		-0.0013227	-0.00127672	1.462670	0.0263176	-0.137284	0.00654233
14041	[	-0.0129375,	0.0026,	0.5	]		-0.00502873	-0.00814719	1.457180	-0.00230376	-0.13735	0.00647811
8476		-0.0658218	0.00501309	1.561840	-0.00434787	-0.137436	0.00633329
8539		-0.0621377	0.0118616	1.567280	0.0242735	-0.13737	0.0064023
#7072
	 stress:
		-0.0014795	0.00452983	1.467000	0.0318984	0.137550	-0.000291471
		-0.00640314	-0.00492672	1.460050	-0.00341812	0.137569	-0.000355694
		-0.0974921	-0.00476293	1.551680	-0.00634621	0.137483	-0.000382039
		-0.092627	0.00463503	1.558500	0.0289704	0.137465	-0.000313033
14167	[	-0.0089125,	0.0026,	0.5	]		0.00103883	0.00708174	1.468520	0.0318841	-0.137068	0.0075965
14104	[	-0.010925,	0.0026,	0.5	]		-0.00388479	-0.00237476	1.461570	-0.00340375	-0.137284	0.00753227
8539		-0.0948438	-0.00215526	1.553260	-0.00633183	-0.13737	0.00720264
8602		-0.0899787	0.00724265	1.560080	0.028956	-0.137154	0.00727165
#7136
	 stress:
		-0.00347407	0.0145664	1.472330	0.0352662	0.137535	-0.000227237
		-0.010368	0.000720471	1.463190	-0.00562347	0.137550	-0.000291471
		-0.126716	-0.00997447	1.543890	-0.0101142	0.137465	-0.000313033
		-0.119968	0.00372522	1.552680	0.0307755	0.137450	-0.000244031
8665,[	-0.0069,	0.0026,	0.5	]		-0.000955588	0.0171181	1.473850	0.035252	-0.136497	0.00846801
14167,[	-0.0089125,	0.0026,	0.5	]		-0.00784937	0.00327252	1.464720	-0.0056091	-0.137068	0.00840378
8539		-0.124068	-0.0073669	1.545470	-0.0100997	-0.137154	0.00762519
8602		-0.11732	0.00633244	1.554260	0.0307613	-0.136583	0.00769419
#7776
	 stress:
		-0.0223448	0.00677384	1.464370	0.00947216	0.137532	0.000213326
		-0.0182687	0.014389	1.470350	-0.0264788	0.137523	0.000158231
		-0.13970	0.00133181	1.548250	-0.0238117	0.137437	0.000169646
9680,[	0.00690,	0.0026,	0.5	]		-0.143605	-0.00611233	1.542680	0.0121393	0.137446	0.000228802
14230,[	0.005175,	0.0026,	0.5	]		-0.0198253	0.00932584	1.465900	0.00945929	-0.136483	-0.00837291
		-0.015749	0.0169414	1.471870	-0.0264672	-0.135807	-0.008428
9617		-0.137051	0.00393933	1.549830	-0.02380	-0.135892	-0.00738362
1412		-0.140956	-0.00350516	1.544260	0.0121265	-0.136569	-0.00732446
#7904
	 stress:
		-0.0243076	0.0118009	1.467760	0.0182232	0.137523	0.000158231
		-0.0243507	0.0100268	1.469390	-0.0182275	0.137517	0.00010317
		-0.148628	-0.00436983	1.545680	-0.019532	0.137431	0.000110529
		-0.148375	-0.00238623	1.544540	0.0169187	0.137437	0.000169646
14230,[	0.005175,	0.0026,	0.5	]		-0.0217889	0.0143528	1.469280	0.0182101	-0.135807	-0.00742114
14293,[	0.00345,	0.0026,	0.5	]		-0.0218317	0.0125796	1.470910	-0.0182162	-0.134974	-0.0074762
9554		-0.14598	-0.00176191	1.547250	-0.0195204	-0.135059	-0.0062042
9617		-0.145728	0.000220752	1.546110	0.016906	-0.135892	-0.00614508
#8032
	 stress:
		-0.0288927	0.0080802	1.467440	0.0207863	0.137517	0.00010317
		-0.0300128	0.0043229	1.467470	-0.0140712	0.137514	4.81138e-05
		-0.146039	-0.00662555	1.547000	-0.0160587	0.137428	5.14547e-05
		-0.144765	-0.00271455	1.547330	0.0187989	0.137431	0.000110529
14293,[	0.00345,	0.0026,	0.5	]		-0.0263739	0.0106329	1.468960	0.0207738	-0.134974	-0.00507702
14356,[	0.001725,	0.0026,	0.5	]		-0.0274939	0.00687566	1.468990	-0.0140596	-0.134361	-0.00513208
9491		-0.143393	-0.0040182	1.548570	-0.0160471	-0.134447	-0.00420059
9554		-0.142119	-0.000107232	1.548910	0.0187864	-0.135059	-0.00414152
#8160
	 stress:
		-0.031182	0.00382183	1.466960	0.0187172	0.137514	4.81138e-05
		-0.0319444	0.00163214	1.466610	-0.0149513	0.137513	-6.97808e-06
		-0.14176	-0.00668969	1.548690	-0.0160269	0.137427	-7.58211e-06
		-0.140935	-0.00443825	1.549180	0.0176416	0.137428	5.14547e-05
14356,[	0.001725,	0.0026,	0.5	]		-0.028662	0.00637508	1.468490	0.0187051	-0.134361	-0.00181145
14419,[	0,	0.0026,	0.5	]		-0.0294243	0.00418559	1.468140	-0.0149397	-0.134115	-0.00186654
9428		-0.139115	-0.00408265	1.550260	-0.0160152	-0.134201	-0.00149424
9491		-0.13829	-0.00183139	1.550760	0.0176296	-0.134447	-0.0014352
#8288
	 stress:
		-0.0315416	0.00180477	1.466790	0.0147453	0.137513	-6.97808e-06
		-0.0307366	0.00409572	1.467180	-0.0190883	0.137514	-6.20217e-05
		-0.141367	-0.00454336	1.549010	-0.0179685	0.137429	-6.66408e-05
		-0.142228	-0.00689031	1.548490	0.0158651	0.137427	-7.58211e-06
14419,[	0,	0.0026,	0.5	]		-0.0290231	0.00435756	1.468310	0.0147335	-0.134115	0.001861
14482,[	-0.001725,	0.0026,	0.5	]		-0.028218	0.00664854	1.468700	-0.019076	-0.134337	0.00180596
9365		-0.138721	-0.00193598	1.550590	-0.0179562	-0.134423	0.00146319
9428		-0.139582	-0.00428296	1.550060	0.0158533	-0.134201	0.00152225
#8416
	 stress:
		-0.0301903	0.00432985	1.467410	0.0137779	0.137514	-6.20217e-05
		-0.0288313	0.00866792	1.467600	-0.0212025	0.137519	-0.000117088
		-0.145343	-0.00239544	1.547240	-0.0189574	0.137433	-0.000125724
		-0.14687	-0.00690197	1.546650	0.016023	0.137429	-6.66408e-05
14482,[	-0.001725,	0.0026,	0.5	]		-0.027671	0.00688298	1.468930	0.0137667	-0.134337	0.0052238
14545,[	-0.00345,	0.0026,	0.5	]		-0.0263123	0.0112202	1.469130	-0.0211896	-0.135008	0.00516874
9302		-0.142696	0.00021146	1.548810	-0.0189448	-0.135094	0.00414283
9365		-0.144223	-0.00429425	1.548230	0.0160114	-0.134423	0.00420191
#8544
	 stress:
		-0.0251871	0.0102297	1.469170	0.0183976	0.137519	-0.000117088
		-0.0252871	0.0116643	1.467400	-0.0179564	0.137526	-0.000172164
		-0.148849	-0.0023084	1.544380	-0.0167999	0.137440	-0.000184858
		-0.148945	-0.00393929	1.545690	0.0195541	0.137433	-0.000125724
14545,[	-0.00345,	0.0026,	0.5	]		-0.0226678	0.0127822	1.470690	0.0183862	-0.135008	0.00743705
14608,[	-0.005175,	0.0026,	0.5	]		-0.0227681	0.0142161	1.468920	-0.0179434	-0.135788	0.00738197
9239		-0.146201	0.000298564	1.545960	-0.0167872	-0.135873	0.00618362
9302		-0.146297	-0.0013317	1.547270	0.0195424	-0.135094	0.00624275
#8672
	 stress:
		-0.0171815	0.0151381	1.470870	0.0271154	0.137526	-0.000172164
		-0.0215693	0.00681132	1.464570	-0.00915976	0.137535	-0.000227237
		-0.144535	-0.00680352	1.542160	-0.0121283	0.137450	-0.000244031
		-0.140327	0.00134378	1.548040	0.0241469	0.137440	-0.000184858
14608,[	-0.005175,	0.0026,	0.5	]		-0.0146626	0.0176899	1.472390	0.0271034	-0.135788	0.00848465
8665,[	-0.0069,	0.0026,	0.5	]		-0.0190504	0.00936321	1.466090	-0.00914709	-0.136497	0.00842958
1278		-0.141886	-0.00419592	1.543730	-0.0121155	-0.136583	0.00732904
9239		-0.137678	0.00395127	1.549610	0.0241349	-0.135873	0.00738821
#8736
	 stress:
		0.00485185	0.0219471	1.581730	0.00491647	0.137660	0.000780866
		-0.0109412	-0.0240654	1.444150	0.00480128	0.137746	0.000727145
		-0.0104313	-0.0233772	1.445160	-0.00689427	0.137707	0.000662919
		0.00536408	0.0226377	1.582750	-0.00677907	0.137621	0.000711857
1490		0.00750027	0.0245549	1.583310	0.0049021	-0.137489	-0.00117815
10632,[	0.023,	0.0026,	0.5	]		-0.0084227	-0.0215133	1.445670	0.00478691	-0.137403	-0.00121956
14671,[	0.0209875,	0.0026,	0.5	]		-0.00791285	-0.0208252	1.446680	-0.00687989	-0.137452	-0.00128378
9750		0.0080125	0.0252455	1.584330	-0.0067647	-0.137538	-0.00124715

#8800
	 stress:
		-0.000208176	0.0202496	1.580360	0.0036779	0.137621	0.000711857
		-0.0109434	-0.0235967	1.444940	0.00317713	0.137707	0.000662919
		-0.00979558	-0.0216737	1.446840	-0.0096375	0.137671	0.000598693
		0.000926727	0.0221597	1.582230	-0.00913672	0.137585	0.000642849
9750		0.00244024	0.0228574	1.581940	0.00366353	-0.137538	-0.00215292
14671,[	0.0209875,	0.0026,	0.5	]		-0.00842491	-0.0210446	1.446460	0.00316276	-0.137452	-0.00226859
14734,[	0.018975,	0.0026,	0.5	]		-0.00727712	-0.0191216	1.448370	-0.00962313	-0.137436	-0.00233281
9813	0.018975	0.00357514	0.0247675	1.583810	-0.00912235	-0.137522	-0.00222193

#8864
	 stress:
		-0.0100575	0.0174522	1.577530	0.00299937	0.137585	0.000642849
		-0.0106122	-0.0220236	1.446490	0.00211606	0.137671	0.000598693
		-0.00883	-0.018874	1.449290	-0.0129472	0.137638	0.000534466
		-0.00829039	0.0205867	1.580280	-0.0120639	0.137552	0.000573841
		-0.0074091	0.020060	1.579100	0.002985	-0.137522	-0.00319535
14734,[	0.018975,	0.0026,	0.5	]		-0.00809374	-0.0194716	1.448020	0.0021017	-0.137436	-0.00331762
14797,[	0.0169625,	0.0026,	0.5	]		-0.00631154	-0.0163219	1.450810	-0.0129328	-0.137408	-0.00338184
		-0.00564199	0.0231945	1.581860	-0.0120495	-0.137494	-0.00326436

#8928
	 stress:
		-0.0247028	0.0135528	1.573250	0.00288495	0.137552	0.000573841
		-0.0099471	-0.0193528	1.448810	0.00162082	0.137638	0.000534466
		-0.00753249	-0.0149812	1.452480	-0.016825	0.137610	0.00047024
		-0.0223028	0.0179098	1.576890	-0.0155609	0.137524	0.000504832
		-0.0220544	0.0161606	1.574820	0.00287058	-0.137494	-0.00425168
14797,[	0.0169625,	0.0026,	0.5	]		-0.00742865	-0.0168007	1.450330	0.00160645	-0.137408	-0.00436664
14860,[	0.01495,	0.0026,	0.5	]		-0.00501404	-0.0124291	1.454010	-0.0168107	-0.137378	-0.00443087
		-0.0196544	0.0205176	1.578470	-0.0155465	-0.137464	-0.00432069

#8992
	 stress:
		-0.0441656	0.00854006	1.567520	0.00333407	0.137524	0.000504832
		-0.00892805	-0.0155793	1.451890	0.00168855	0.137610	0.00047024
		-0.00588035	-0.00998419	1.456450	-0.0212837	0.137585	0.000406015
		-0.0411328	0.0141202	1.572050	-0.0196382	0.137499	0.000435824
		-0.0415172	0.0111478	1.569100	0.0033197	-0.137464	-0.00530386
14860,[	0.01495,	0.0026,	0.5	]		-0.00640961	-0.0130272	1.453410	0.00167419	-0.137378	-0.00541567
14923,[	0.0129375,	0.0026,	0.5	]		-0.00336191	-0.00743214	1.457970	-0.0212693	-0.137344	-0.00547989
		-0.0384844	0.016728	1.573630	-0.0196238	-0.137429	-0.00537287

#9056
	 stress:
		-0.068482	0.00239913	1.560330	0.00436258	0.137499	0.000435824
		-0.00753783	-0.0106945	1.455740	0.00231672	0.137585	0.000406015
		-0.00383508	-0.00382464	1.461210	-0.0263374	0.137563	0.00034179
		-0.0648008	0.00924751	1.565750	-0.0242915	0.137478	0.000366816
		-0.0658336	0.00500688	1.561910	0.00434821	-0.137429	-0.00632332
14923,[	0.0129375,	0.0026,	0.5	]		-0.00501941	-0.0081425	1.457260	0.00230236	-0.137344	-0.00646454
14986,[	0.010925,	0.0026,	0.5	]		-0.00131666	-0.0012726	1.462730	-0.026323	-0.137279	-0.00652876
		-0.0621524	0.0118553	1.567330	-0.0242771	-0.137364	-0.00639233

#9120
	 stress:
		-0.0975151	-0.0047729	1.551730	0.00634426	0.137478	0.000366816
		-0.00638137	-0.00491591	1.460120	0.00341872	0.137563	0.00034179
		-0.00146602	0.00452841	1.467060	-0.0319071	0.137546	0.000277565
		-0.0926581	0.00461306	1.558540	-0.0289816	0.137460	0.000297807
		-0.0948667	-0.00216516	1.553310	0.00632987	-0.137364	-0.0071916
14986,[	0.010925,	0.0026,	0.5	]		-0.00386295	-0.00236387	1.461640	0.00340435	-0.137279	-0.00751866
15049,[	0.0089125,	0.0026,	0.5	]		0.00105238	0.00708039	1.468580	-0.0318928	-0.137062	-0.00758288
		-0.0900097	0.00722075	1.560110	-0.0289672	-0.137148	-0.00726061

#9184
	 stress:
		-0.126784	-0.0100124	1.543910	0.0102121	0.137460	0.000297807
		-0.0104456	0.000680008	1.463210	0.00558351	0.137546	0.000277565
		-0.00339645	0.0148946	1.472500	-0.0353036	0.137532	0.000213326
		-0.119883	0.00405409	1.552850	-0.030675	0.137446	0.000228802
		-0.124136	-0.00740481	1.545490	0.0101975	-0.137148	-0.00760638
15049,[	0.0089125,	0.0026,	0.5	]		-0.00792686	0.00323215	1.464730	0.00556917	-0.137062	-0.00839285
9680,[	0.0069,	0.0026,	0.5	]		-0.000877941	0.0174461	1.474020	-0.0352893	-0.136483	-0.00845709
		-0.117235	0.00666114	1.554420	-0.0306609	-0.136569	-0.00767539
