%element	local	global	x	y	z	dx	dy	dz	e11	e22	e33	e12	e23	e13	s11	s22	s33	s12	s23	s13	von
0	0	1	-0.5	-0.5	0	-0.015	-0.015	0	0.03	0.03	-0.1	1.38778e-16	-9.02056e-17	-1.59595e-16	1.3344e-16	-4.00321e-16	-1	5.33761e-16	-3.46945e-16	-6.13825e-16	1	
