%element	local	global	x	y	z	dx	dy	dz	e11	e22	e33	e12	e23	e13	s11	s22	s33	s12	s23	s13	von
0	0	1	-0.5	-0.5	0	-0.015	-0.015	0	0.03	0.03	-0.1	1.73472e-17	-3.46945e-18	-5.20417e-17	-2.66881e-16	-4.00321e-16	-1	6.67201e-17	-1.3344e-17	-2.0016e-16	1	
